Ti Te Hf S 
 1.0000000000000000
     3.6301874692892744    0.0000000000000000    0.0000000000000000
    -1.8150937346446372    3.1438345689044529    0.0000000000000000
     0.0000000000000000    0.0000000000000000   42.2031865910419768
 Ti  Te  Hf  S  
   2   2   1   2
Cartesian
  2.0955188840831811  1.4299822953716270 23.1089086885873165
  2.0955188840831811  1.4299822953716270 25.4880250673365687
  0.2804251494385441  2.4779271516731107 21.3937501535297123
  0.2804251494385441  2.4779271516731107 27.2031865910419768
  0.1950514709569117  0.5526912617637709 16.4481043019908562
  2.0101452056015487  1.6006361180652553 17.8962086039820498
  0.1950514709569117  2.6485809743667397 15.0000000000000000
