Cl Pd Sn S 
 1.0000000000000000
     3.6821479274479954   -0.0000057074165551    0.0000000000000000
    -1.8410789072286984    3.1888075993191594    0.0000000000000000
    -0.0000000000000001    0.0000000000000000   39.6148828298028519
 Cl  Pd  Sn  S  
   2   2   1   2
Cartesian
 -0.4407419402649859  2.1313349991023776 20.5546101012499420
  3.2414581889876315  2.1312405093693441 24.6148828298028519
  1.4001138661986245  1.0681817823503144 23.3366791349927922
  1.4001065108882225  3.1940769907825728 21.8308257923257756
  0.6230030614833493  0.1731807010920823 16.4775714027844238
  2.4640753773724469  1.2361127625874320 17.9551428055688476
  0.6229997658135489  2.2990505314993364 15.0000000000000000
