W  Te Ga S 
 1.0000000000000000
     3.5977018749587346    0.0000000000000000    0.0000000000000000
    -1.7988509374793673    3.1157012189571702    0.0000000000000000
     0.0000000000000000    0.0000000000000000   42.1456863109680597
 W   Te  Ga  S  
   1   2   2   2
Cartesian
 -0.5654453223758710  1.4433711793106960 16.8119622132334676
  1.2334056151034967  2.4819382522964188 18.6239244264669352
  1.2334056151034967  2.4819382522964188 15.0000000000000018
  1.9713899476401668  1.3452966661519867 23.5729401643607090
  1.9713899476401668  1.3452966661519867 26.0516587256040637
  0.1725390101607998  2.3838637391377100 22.4789125789965567
  0.1725390101607998  2.3838637391377100 27.1456863109680597
