Ge Cl In Te In
 1.0000000000000000
     4.3068199542600967   -0.0000000000000002    0.0000000000000000
    -2.1534099771300483    3.7298154899160556    0.0000000000000000
    -0.0000000000000011   -0.0000000000000018  -44.4047681538186794
 Ge  Cl  In  Te  In 
   2   2   1   2   1
Cartesian
  1.8254489365986035  0.4963801245293830 -27.2147545222631777
  1.8254489403603487  2.9829237844734213 -26.5429165203496993
  1.8254489365986035  0.4963801245293825 -29.4047681538186794
  1.8254489403603487  2.9829237844734213 -24.3529028960212806
  0.6015956139717370  3.3696981871755693 -16.3745681905474640
  2.7550119561009940  2.1260372235030740 -20.5577319829025207
  0.6015400465592160  0.8828433265171046 -15.0000000000000036
  0.6015426152344552  3.3698923748819856 -19.1831607748034898
