Pb Br I  In
 1.0000000000000000
     4.3932973065184662   -0.0000000000000000    0.0000000000000000
    -2.1966486519800759    3.8061711519817472    0.0000000000000000
     0.0000000000000000    0.0000000000000000   43.4037840796763845
 Pb  Br  I   In 
   1   2   2   2
Cartesian
 -0.2998011600593805  1.6073330649435567 16.8414801415537809
  1.8968474936262381  2.8760567822708061 18.6829602831084465
  1.8968474936262381  2.8760567822708061 15.0000000000000000
  1.4208037704067356  0.7722668823710515 22.0513195067967516
  1.4208633223980902  3.3091613731726661 28.4037840796763881
  1.4200834503742232  0.7727005624971823 26.5451096802100501
  1.4215837748225630  3.3087281431735458 23.9108025079969799
