Pb Br Pb Cl
 1.0000000000000000
     4.2439908103420532    0.0000000000000000    0.0000000000000000
    -2.1219954051710266    3.6754038551839230    0.0000000000000000
     0.0000000000000000    0.0000000000000000   41.0776501777832834
 Pb  Br  Pb  Cl 
   1   2   1   2
Cartesian
  0.2404501400620151  1.4385600071317881 16.8414801415537809
  2.3624455452330415  2.6636946255264289 18.6829602831084465
  2.3624455452330415  2.6636946255264289 15.0000000000000000
  0.3023810170583218  1.6384211631017749 24.3772473475020242
  2.4243764222293485  2.8635557814964159 26.0776501777832763
  2.4243764222293485  2.8635557814964159 22.6768445172207720
