Ti I  Al Se
 1.0000000000000000
     3.7733224583861382   -0.0000000000000000    0.0000000000000000
    -1.8866612291930691    3.2677931056327454    0.0000000000000000
    -0.0000000000000000    0.0000000000000000   42.3157294533938710
 Ti  I   Al  Se 
   1   2   2   2
Cartesian
 -0.4686290097093950  1.4484616690177869 16.8143657812576208
  1.4180322194836736  2.5377260375620354 18.6287315661405373
  1.4180322194836736  2.5377260375620354 15.0000000000000000
  1.9522193555296259  1.3975732132550500 23.5603976376213708
  1.9522193555296259  1.3975732132550500 26.1482501205575630
  0.0655581263365568  2.4868375817992985 22.3929183047850984
  0.0655581263365568  2.4868375817992985 27.3157294533938710
