Al Se In S 
 1.0000000000000000
     3.8461278920099931    0.0000000000000000    0.0000000000000000
    -1.9230639460049965    3.3308444606845455    0.0000000000000000
    -0.0000000000000000    0.0000000000000000   44.0816677731093094
 Al  Se  In  S  
   2   2   2   2
Cartesian
  2.1446418454961154  1.1349160280404653 16.1674793328362689
  2.1446418454961154  1.1349160280404653 18.7553318157724647
  0.2215778994911190  2.2451975149353136 15.0000000000000000
  0.2215778994911191  2.2451975149353136 19.9228111486087727
  2.2137588001787432  1.4739606719062939 25.0849875339281390
  2.2137588001787432  1.4739606719062939 27.9039450421815438
  0.2906948541737467  2.5842421588011422 23.9072648029934811
  0.2906948541737467  2.5842421588011422 29.0816677731092987
