Ti Te Pt Se
 1.0000000000000000
     3.6782267540808955    0.0000000000000000    0.0000000000000000
    -1.8391133770404477    3.1854378099136325    0.0000000000000000
     0.0000000000000000    0.0000000000000000   41.9095036767283631
 Ti  Te  Pt  Se 
   2   2   1   2
Cartesian
  2.1282909264109717  1.4465376155823826 22.8152257742736992
  2.1282909264109717  1.4465376155823826 25.1943421530229514
  0.2891775493705240  2.5083502188869264 21.1000672392160951
  0.2891775493705240  2.5083502188869264 26.9095036767283631
  0.2046821321215260  0.5496363649030195 16.3098087278973871
  2.0437955091619737  1.6114489682075637 17.6196174497051352
  0.2046821321215258  2.6732615715121080 15.0000000000000036
