Br Hg S  Zr
 1.0000000000000000
     4.1873015591873060    0.0010674728082233    0.0000000000000000
    -2.0927187004306047    3.6333090079996926    0.0000000000000000
     0.0000000000000034    0.0000000000000000   42.1477164830147117
 Br  Hg  S   Zr 
   2   2   2   2
Cartesian
  1.2404051450113103 -0.1404067702728633 15.0000000000000000
  1.2510363896150223  4.6822911628652859 20.7696522731609825
  1.2555481016986725  2.2571770867439507 19.2178916173209409
  1.2364501832103085  2.2843878787783125 16.5512692941072110
  1.2027826442747980  0.8795000960314759 23.8198547669030916
  1.2036885591408506  3.3016059559376858 27.1477164830147117
  1.2028527000495717  0.8794175877746832 26.4436633696448098
  1.2036184923943385  3.3016884671544782 24.5239458866055600
