Ca I  In
 1.0000000000000000
     4.4321982269853066   -0.0000000000000000    0.0000000000000000
    -2.2160991122134961    3.8398603373366296    0.0000000000000000
     0.0000000000000000    0.0000000000000000   43.6308699696408340
 Ca  I   In 
   1   4   2
Cartesian
 -0.2166845638165824  1.5335754380061410 16.9490723290323402
  1.9994145501024563  2.8135288837850170 18.8981446580646519
  1.9994145501024563  2.8135288837850170 15.0000000000000000
  1.4829289868085986  0.7369304616153576 22.2784053967611868
  1.4829890661018754  3.2962795151031239 28.6308699696408269
  1.4822022886253841  0.7373679803313916 26.7721955701744889
  1.4837158978493292  3.2958424504982649 24.1378883979614187
