Br Cd Se Hf
 1.0000000000000000
     4.1849212250106707    0.0014024937248978    0.0000000000000000
    -2.0912360057852108    3.6307697881481640    0.0000000000000000
     0.0000000000000028    0.0000000000000000   36.3555970483005098
 Br  Cd  Se  Hf 
   2   2   2   2
Cartesian
  1.4201425524166065 -0.1070028477411888 15.6327478383927048
  1.4336679552035407  4.7099558713292877 21.3555970483005098
  1.4334974485048213  2.2896295364983832 19.8338070421149979
  1.4198911769898015  2.3136646658042244 17.1542737200248041
  1.3752176935954366  1.0986360710081950 15.0000000000000000
  1.3762930274039791  3.5190545881511861 18.6912765295358625
  1.3752777997892986  1.0985699163723159 17.7686483511876077
  1.3762329949525880  3.5191207943539529 15.9230671053787329
