In Se In I  Zn
 1.0000000000000000
     4.1381625949879375    0.0000000000000035    0.0000000000000000
    -2.0676953290313480    3.5845534176508238    0.0000000000000000
     0.0000000000000014    0.0000000000000024   44.5656802752711343
 In  Se  In  I   Zn 
   1   2   1   2   2
Cartesian
  0.0091329507066802  2.9335700993320186 19.0853122328591027
  2.0777605443727172  1.7383545203857438 14.9999999999999982
  0.0080538348061927  0.5436467373152321 20.3557279819780383
  0.0089864064121972  2.9337861018554734 16.2704079646881112
  0.6389282179058234  1.1263723836185298 24.2623302418346398
  0.6287716306576844  3.5055423836543813 29.5656802752711378
  2.6968330576690667  2.3081580660690602 28.0997239807301291
  2.7093758494477140  2.3242679262235040 25.7281794779494746
