Sn O  Zr O 
 1.0000000000000000
     3.2441622372893608    0.0000000000000000    0.0000000000000000
    -1.6220811186446804    2.8095269114907464    0.0000000000000000
     0.0000000000000000    0.0000000000000000   37.5683914419902436
 Sn  O   Zr  O  
   1   2   1   2
Cartesian
  0.4555644655377148  0.7091803698405074 16.0089623246724138
  2.0776455841823953  1.6456893403374229 17.0179246493448275
  0.4555644655377148  2.5821983108343383 15.0000000000000000
  0.5583128238524392  0.5027376719330232 21.6070594695586635
  2.1803939424971190  1.4392466424299386 22.5683914419902436
  0.5583128238524392  2.3757556129268540 20.6457274971270870
