W  Te Zr Se
 1.0000000000000000
     3.5729058507309803    0.0000000000000000    0.0000000000000000
    -1.7864529253654902    3.0942272320630808    0.0000000000000000
    -0.0000000000000000    0.0000000000000000   43.4323823648123124
 W   Te  Zr  Se 
   1   2   2   2
Cartesian
 -0.3380615073480850  1.1751335652174015 16.8119622132334641
  1.4483914180174051  2.2065426425717618 18.6239244264669317
  1.4483914180174051  2.2065426425717618 15.0000000000000000
  2.1361948442591654  1.4427980554972997 24.0735340273796830
  2.1361948442591654  1.4427980554972997 26.8197765360632694
  0.3497419188936755  2.4742071328516597 22.4609279411810938
  0.3497419188936755  2.4742071328516597 28.4323823648123124
