Al Te Al Ge Cl
 1.0000000000000000
     4.1823680479448360   -0.0000000000000002    0.0000000000000000
    -2.0911840268094957    3.6219511504697848    0.0000000000000000
    -0.0000000000000011   -0.0000000000000017  -43.9651034581292279
 Al  Te  Al  Ge  Cl 
   1   2   1   2   2
Cartesian
  0.5873153193165450  3.2950990128975390 -16.2686437080422905
  2.6785441403675065  2.0877860043674037 -20.1000459107870029
  0.5872897993228269  0.8804315655006846 -15.0000000000000000
  0.5873346021908243  3.2950697060362599 -18.8314339415517864
  1.7778256847574136  0.4821762839908278 -26.7750898265737263
  1.7778256865190725  2.8968103843040187 -26.1032518246602478
  1.7778256847574136  0.4821762839908274 -28.9651034581292279
  1.7778256865190727  2.8968103843040187 -23.9132382003318291
