Al Se Pd Se
 1.0000000000000000
     3.7562893584220776   -0.0000000000000000    0.0000000000000000
    -1.8781446792110388    3.2530420083586695    0.0000000000000000
    -0.0000000000000000    0.0000000000000000   41.5355677598563133
 Al  Se  Pd  Se 
   2   2   1   2
Cartesian
  2.0642846276413680  1.4330235406540508 16.1674793328362689
  2.0642846276413680  1.4330235406540508 18.7553318157724647
  0.1861399484303294  2.5173708767736076 15.0000000000000000
  0.1861399484303294  2.5173708767736076 19.9228111486087727
  0.0636191291906300  0.6433213797777078 25.2225092355248961
  1.9417638084016682  1.7276687158972643 26.5355677598563062
  0.0636191291906300  2.8120160520168209 23.9094509518958205
