Zr Te S  Zn
 1.0000000000000000
     3.9225696933697423    0.0000000000000000    0.0000000000000000
    -1.9612848455645404    3.3973007737956440    0.0000000000000000
    -0.0000000000000000    0.0000000000000000   40.2987224232435111
 Zr  Te  S   Zn 
   1   2   2   2
Cartesian
 -0.7038201680088949  1.5942954078167981 16.8615645620742072
  1.2574646790494199  2.7267289990820132 18.7231291241485991
  1.2574646790494199  2.7267289990820132 15.0000000000000000
  1.1332252215115937  0.6398971120116762 22.1779797813404365
  1.1332959774406703  2.9045667617294977 25.2987224232435111
  1.1330981852805457  0.6399455857411286 24.7594398703497838
  1.1334230287145803  2.9045184171939296 22.7174081858197354
