I  Hg Te Zn
 1.0000000000000000
     4.3924469100259742   -0.0000000000000011    0.0000000000000000
    -2.1962234525039515    3.8203950265249045    0.0000000000000000
     0.0000000000000035    0.0000000000000000   42.5367564878001474
 I   Hg  Te  Zn 
   2   2   2   2
Cartesian
  1.3262737020366162 -0.2997902278830814 14.9999999999999982
  1.3358919144102950  4.7590707268331434 20.9242317454966695
  1.3443560631305060  2.2157768283780204 19.3041194247390777
  1.3231208565851396  2.2396947626231638 16.6206582552528523
  1.3762769916291904  0.9679130885827611 23.7770091216527959
  1.3763857221319524  3.5145587004498022 27.5367564878001474
  1.3761407865500801  0.9680012152027254 26.5879676166590642
  1.3765216930155511  3.5144702028830190 24.7261493286577192
