S  Ti Hg Cl
 1.0000000000000000
     3.9559562010127953   -0.0000000000000000    0.0000000000000000
    -1.9779780993874096    3.4268042900431834    0.0000000000000000
     0.0000000000000000    0.0000000000000000   40.0137952399030752
 S   Ti  Hg  Cl 
   2   2   1   2
Cartesian
  1.2119960943956198  0.7718945390190148 15.0000000000000018
  1.2122092803199829  3.0558284588886586 18.2247483793411611
  1.2119269008959863  0.7719023316784600 17.4814467457056111
  1.2122785014703490  3.0558206698043859 15.7433429186812184
  0.7019560727582301 -0.1022929616966803 23.5541909513187306
  2.6799341736376263  1.0399751349843813 25.0137952399030752
  0.7019560735042227  2.1822432316654430 22.0945866627344074
