Hf Br Si Se
 1.0000000000000000
     3.5042142796778943   -0.0000000000000001    0.0000000000000000
    -1.7519152730679739    3.0353254092001674    0.0000000000000000
     0.0000000000000012    0.0000000000000021   40.5263148711798564
 Hf  Br  Si  Se 
   1   2   1   2
Cartesian
 -0.6095579049316047  1.4977935873230772 23.6776168314841371
  1.1426131904976669  2.5095687237231332 25.5263148711798635
  1.1426131904976669  2.5095687237231328 21.8289187813697581
  0.7783963501780131  1.0071733514262742 16.4396280578599168
  2.5310912875527301  2.0181353829630706 15.0000000000000000
  0.7785776773935882  3.0299757513212184 17.8792530868155595
