Al O  Ge O 
 1.0000000000000000
     2.9399624523395120    0.0000000000000000    0.0000000000000000
    -1.4699812261697560    2.5460821698984146    0.0000000000000000
     0.0000000000000000    0.0000000000000000   39.8384842970831912
 Al  O   Ge  O  
   2   2   1   2
Cartesian
  1.5925378826973327  1.2116260808313999 15.6681082558091518
  1.5925378826973327  1.2116260808313999 18.2905856942560305
  0.1225566565275767  2.0603201374642044 15.0000000000000000
  0.1225566565275767  2.0603201374642044 18.9586939500651503
 -0.4435050242478773  0.9119784947033449 23.8590435131348642
  1.0264762019218785  1.7606725513361496 24.8384842970831912
 -0.4435050242478773  2.6093666079689544 22.8796027291865371
