S  Cd Ge I 
 1.0000000000000000
     4.3079669494522621   -0.0000000000000000    0.0000000000000000
    -2.1539834734935912    3.7322745809865898    0.0000000000000000
     0.0000000000000000    0.0000000000000000   40.6387298622194919
 S   Cd  Ge  I  
   2   2   1   2
Cartesian
  1.2403197879585641  0.6956198037175401 15.0000000000000000
  1.2406388305725848  3.1825715763389382 18.2374084038473541
  1.2399481489104092  0.6956901751418482 17.8133498455626693
  1.2410106958730236  3.1825012274193365 15.4239508926595690
  0.8166027379425074 -0.0246668740219854 23.8939539682382396
  2.9705862130794856  1.2194246529735440 25.6387298622194848
  0.8166027387642006  2.4635161799690737 22.1491780742569908
