Cr O  C  H 
 1.0000000000000000
     2.5867304853242041   -0.0000000000000000    0.0000000000000000
    -1.2933652426597160    2.2401743130325045    0.0000000000000000
     0.0000000000000012    0.0000000000000021   38.9235671885183478
 Cr  O   C   H  
   1   2   2   2
Cartesian
  0.2960329934666615 -0.1191598669909279 16.1684397319200883
  1.5893982361295589  0.6275649040199068 17.3368794638401766
  1.5893982361295589  0.6275649040199068 14.9999999999999982
 -0.2156791748603710  2.1865480742024332 22.3546617656535460
  1.0776860675935116  1.4398233031915988 22.8133436852205875
  1.0776860677993445 -0.0536262388300709 21.2444412628067383
  1.0776860675935116  1.4398233031915990 23.9235671885183478
