Pb Se Br Hg
 1.0000000000000000
     4.1285303590430793    0.0010674728082233    0.0000000000000000
    -2.0633331015567102    3.5819099216230668    0.0000000000000000
    -0.0000000000000033   -0.0000000000000000  -40.3995631301812779
 Pb  Se  Br  Hg 
   1   1   2   2
Cartesian
  2.7975034121045210  1.6340506227945359 -23.8513210834395721
  0.7335489252379244  2.8276647723994830 -25.3995631301812743
  1.0673460007953124 -0.2397013147382548 -20.7696522731609825
  1.0778453904227789  4.5147817390078506 -15.0000000000000000
  1.0822850481098523  2.1239698393723812 -16.5517606558400416
  1.0634552779281545  2.1507956779884991 -19.2183829790537715
