Ge Te In Se
 1.0000000000000000
     4.0088493366484403   -0.0000000000000000    0.0000000000000000
    -2.0044246683242202    3.4717653654819398    0.0000000000000000
     0.0000000000000000    0.0000000000000000   40.4384469781440359
 Ge  Te  In  Se 
   1   1   2   2
Cartesian
  2.0449992595429896  1.7839844877331825 16.5598212339094282
  0.0405745912187696  2.9412396095604958 15.0000000000000000
  2.2955217190031640  1.3955035831941192 21.3476710410153956
  2.2955217190031640  1.3955035831941192 24.1619167544016626
  0.2910970506789443  2.5527587050214327 20.0711407948752694
  0.2910970506789444  2.5527587050214327 25.4384469781440359
