Pb Se I  Zn
 1.0000000000000000
     4.1347002813968334    0.0000000000000035    0.0000000000000000
    -2.0659641722357955    3.5815549661250512    0.0000000000000000
    -0.0000000000000012   -0.0000000000000021  -40.5096820019472048
 Pb  Se  I   Zn 
   1   1   2   2
Cartesian
  1.9423238427113112  1.4988713829694293 -23.9614399552055097
 -0.1245643084995654  2.6927230383444449 -25.5096820019472119
  0.5339949786720256  0.7052351506755435 -20.3033500334364945
  0.5238476588933357  3.0824149931978955 -15.0000000000000000
  2.5901783950569701  1.8860322784388350 -16.4659562945410087
  2.6027106977571650  1.9021286628184380 -18.8375007973216633
