Zr Te Cd Cl
 1.0000000000000000
     3.8241406719045985   -0.0000000000000000    0.0000000000000000
    -1.9120703359522992    3.3118029695146740    0.0000000000000000
    -0.0000000000000000    0.0000000000000000  -42.6483056273971215
 Zr  Te  Cd  Cl 
   2   2   1   2
Cartesian
  2.1937703325956130  1.4294625518382360 -19.4970846171610717
  2.1937703325956130  1.4294625518382360 -16.8181936022182441
  0.2816999966433139  2.5333968750097942 -21.3152780539108946
  0.2816999966433140  2.5333968750097942 -15.0000000000000000
  0.1959313978229134  0.5872688813364948 -26.2104342107848467
  2.1080017337752119  1.6912032045080529 -24.7725627941725506
  0.1959313978229136  2.7951375276796111 -27.6483056273971215
