Ti Se Pd S 
 1.0000000000000000
     3.5243402940772386    0.0000000000000000    0.0000000000000000
    -1.7621701470386193    3.0521682262520073    0.0000000000000000
     0.0000000000000000    0.0000000000000000   39.5775573602204034
 Ti  Se  Pd  S  
   1   2   1   2
Cartesian
 -0.5282302039153709  1.2060450402003429 16.6199398271809464
  1.2339399431232485  2.2234344489510121 18.2398796543619532
  1.2339399431232485  2.2234344489510121 15.0000000000000000
  0.4692480336692632  0.9688774149857508 23.3324855268158728
  2.2314181807078826  1.9862668237364196 24.5775573602204034
  0.4692480336692632  3.0036562324870886 22.0874136934113423
