Br Hg Cd Br
 1.0000000000000000
     4.1206771549324941    0.0010674728082233    0.0000000000000000
    -2.0594064995014181    3.5751088473622037    0.0000000000000000
     0.0000000000000035    0.0000000000000000   42.5059042224455581
 Br  Hg  Cd  Br 
   2   2   1   2
Cartesian
  1.1688913830151135 -0.3736209499759516 14.9999999999999982
  1.1793731539526344  4.3718359810674743 20.7696522731609790
  1.1838031833836598  1.9855629101551484 19.2178916173209373
  1.1650092440757487  2.0123378121307729 16.5512692941072075
  0.7211377838510429  0.3114638605478826 25.9392963717296041
  2.7817870539722334  1.5038784582074325 27.5059042224455581
  0.7217591691609290  2.6952255830587588 24.3726885210136679
