Ge Cl Tl Se Tl
 1.0000000000000000
     4.2307842873565358   -0.0000000000000002    0.0000000000000000
    -2.1153921436782679    3.6639666707838803    0.0000000000000000
     0.0000000000000011    0.0000000000000017   44.0282189976346601
 Ge  Cl  Tl  Se  Tl 
   2   2   1   2   1
Cartesian
  1.2132289517109902  0.2777504559181297 17.1900136315555017
  1.2132289554063229  2.7203949031073846 17.8618516334689801
  1.2132289517109902  0.2777504559181293 14.9999999999999982
  1.2132289554063229  2.7203949031073846 20.0518652577973953
  0.8735332907907878  3.2356412280022537 27.7441064012054355
  2.9887766648469105  2.0137701437124527 23.5653064074772161
  0.8734290128176866  0.7925068332364231 29.0282189976346530
  0.8732802379757938  3.2360593432140723 24.8494156605266525
