Cr Se Zr O 
 1.0000000000000000
     3.2394912886807816    0.0000000000000000    0.0000000000000000
    -1.6197456443403908    2.8054817513359458    0.0000000000000000
     0.0000000000000000    0.0000000000000000   38.9786126551879590
 Cr  Se  Zr  O  
   1   2   1   2
Cartesian
 -0.5730763896463373  1.1324771870041186 16.5737644427049204
  1.0466692546940537  2.0676377707827669 18.1475288854098444
  1.0466692546940537  2.0676377707827669 15.0000000000000000
  0.5189057590306672  0.8642101600203447 23.0172806827563861
  2.1386514033710577  1.7993707437989932 23.9786126551879590
  0.5189057590306672  2.7345313275776419 22.0559487103248060
