Zr S  Zr Se
 1.0000000000000000
     3.7385548429631132    0.0000000000000000    0.0000000000000000
    -1.8692774214815566    3.2376834674473987    0.0000000000000000
    -0.0000000000000000    0.0000000000000000   39.4421765934607080
 Zr  S   Zr  Se 
   1   2   1   2
Cartesian
  0.5161758561564156  0.6938955453420176 16.4458824427441250
  2.3854532776379722  1.7731233678244838 17.8917648854881861
  0.5161758561564155  2.8523511903069498 14.9999999999999982
  0.5656359589324751  0.7119023698033959 22.8615712883286832
  2.4349133804140313  1.7911301922858618 24.4421765934607080
  0.5656359589324751  2.8703580147683274 21.2809659831965305
