Zr Br Pd S 
 1.0000000000000000
     3.5578420296136057   -0.0000000000000000    0.0000000000000000
    -1.7789210148068029    3.0811815802973692    0.0000000000000000
     0.0000000000000000    0.0000000000000000   40.0956356811610846
 Zr  Br  Pd  S  
   1   2   1   2
Cartesian
 -0.8240841944907185  1.6359955089286966 16.8261924305408073
  0.9548368203160844  2.6630560356944866 18.6523848530272502
  0.9548368203160844  2.6630560356944866 15.0000000000000000
  0.4088434075017032  0.8885473840067188 23.8505638477565540
  2.1877644223085055  1.9156079107725086 25.0956356811610846
  0.4088434075017032  2.9426684375382983 22.6054920143520235
