Cr Te Ru Cl
 1.0000000000000000
     3.5316684739104698   -0.0000000000000000    0.0000000000000000
    -1.7658342369552351    3.0585146161510863    0.0000000000000000
     0.0000000000000000    0.0000000000000000   39.6797802663107575
 Cr  Te  Ru  Cl 
   1   2   1   2
Cartesian
 -0.4951456533185773  1.2364420522778889 16.7062363127964773
  1.2706885836366575  2.2559469243282511 18.4124726255929616
  1.2706885836366575  2.2559469243282511 14.9999999999999964
  0.3364015965256680  0.9894541145721735 23.4524041166951633
  2.1022358334809041  2.0089589866225355 24.6797802663107575
  0.3364015965256693  3.0284638586728976 22.2250279775981312
