Mg Br Pb S 
 1.0000000000000000
     3.8657665752292840   -0.0000000000000000    0.0000000000000000
    -1.9328832876146422    3.3478520592493277    0.0000000000000000
     0.0000000000000000    0.0000000000000000  -39.5456335516857109
 Mg  Br  Pb  S  
   1   2   1   2
Cartesian
  0.6329357409755163  0.9644571123337329 -23.0386079032699485
  2.5658190285901568  2.0804077987501763 -21.5315822548541860
  0.6329357409755161  3.1963584851666207 -24.5456335516857074
  0.6814771203819306  0.5956994016625822 -16.5419903580376300
  2.6143604079965730  1.7116500880790249 -14.9999999999999964
  0.6814771203819305  2.8276007744954672 -18.0839807160752635
