Hg Br Hg Cl
 1.0000000000000000
     4.0686152147775063    0.0000000000000000    0.0000000000000000
    -2.0343076073887536    3.5235241342212005    0.0000000000000000
     0.0000000000000000    0.0000000000000000   38.9712925898052021
 Hg  Br  Hg  Cl 
   1   2   1   2
Cartesian
  0.6816291697895647  1.0972170944240678 22.3818850136743990
  2.7159367771783165  2.2717251391644679 23.9712925898052021
  0.6816291697895641  3.4462331839048681 20.7924774375436030
  0.8559022789507409  0.5797102550196629 16.4596042885843268
  2.8902098863394965  1.7542182997600637 17.9192085771686713
  0.8559022789507413  2.9287263445004643 15.0000000000000036
