Zr Te Sn Se
 1.0000000000000000
     3.8936815912643992    0.0000000000000000    0.0000000000000000
    -1.9468407956321996    3.3720271722827873    0.0000000000000000
     0.0000000000000000    0.0000000000000000   40.6471493866000131
 Zr  Te  Sn  Se 
   1   2   1   2
Cartesian
 -0.4772050266893691  1.4698852012914219 23.7855848245256212
  1.4696357689428305  2.5938942587190175 25.6471493866000095
  1.4696357689428305  2.5938942587190175 21.9240202624514104
  0.8446118595845753  0.9466173226557870 16.5929310195742623
  2.7914526552167747  2.0706263800833828 18.1858620391484678
  0.8446118595845753  3.1946354375109789 14.9999999999999964
