Pb S  Bi O 
 1.0000000000000000
     3.9627186414935842   -0.0000000000000000    0.0000000000000000
    -1.9813593207467921    3.4318150115836028    0.0000000000000000
     0.0000000000000000    0.0000000000000000  -38.7043221492917766
 Pb  S   Bi  O  
   1   1   2   2
Cartesian
  2.4003569611602757  1.6708113163045828 -22.2651582645528379
  0.4189976404134843  2.8147496534991170 -23.7043221492917766
  2.4916813724729403  1.3337701688328671 -18.2805652471915501
  2.4916813724729403  1.3337701688328671 -15.1279490437487709
  0.5103220517261484  2.4777085060274011 -18.4085143927414876
  0.5103220517261483  2.4777085060274011 -15.0000000000000000
