Pb I  In
 1.0000000000000000
     4.4905816763063360   -0.0000000000000000    0.0000000000000000
    -2.2452908368740108    3.8904218876092020    0.0000000000000000
     0.0000000000000000    0.0000000000000000   43.7776682541085904
 Pb  I   In 
   1   4   2
Cartesian
 -0.2251780345651894  1.5646156489448715 17.0310965280492574
  2.0201128040143641  2.8614229448146054 19.0621930560985149
  2.0201128040143641  2.8614229448146054 15.0000000000000000
  1.4490822863473527  0.7731496483785898 22.4252036812289646
  1.4491431570282023  3.3661990566877869 28.7776682541085975
  1.4483460156801500  0.7735929281438841 26.9189938546422667
  1.4498795630190286  3.3657562370131995 24.2846866824291965
