Ge Cl Mg I 
 1.0000000000000000
     4.2199040830924730   -0.0000000000000002    0.0000000000000000
    -2.1099520415462365    3.6545441374928416    0.0000000000000000
     0.0000000000000010    0.0000000000000017   42.3179408756484108
 Ge  Cl  Mg  I  
   2   2   1   2
Cartesian
  1.2714715543557638  0.6986768069005556 17.1900136315555052
  1.2714715580415932  3.1350395652291181 17.8618516334689801
  1.2714715543557638  0.6986768069005551 15.0000000000000018
  1.2714715580415932  3.1350395652291181 20.0518652577974024
  0.6891859044953504  0.1394419128862006 25.6436232189805509
  2.7991379460415855  1.3576232920504818 27.3179408756484179
  0.6891859044953503  2.5758046712147635 23.9693055623126838
