W  Te Al S 
 1.0000000000000000
     3.5670407169198324    0.0000000000000000    0.0000000000000000
    -1.7835203584599162    3.0891478771860310    0.0000000000000000
     0.0000000000000000    0.0000000000000000   42.1931391314644273
 W   Te  Al  S  
   1   2   2   2
Cartesian
 -0.5348813584289593  1.4355894101725895 16.8119622132334641
  1.2486390000309568  2.4653053692345992 18.6239244264669317
  1.2486390000309568  2.4653053692345992 15.0000000000000000
  1.8925051521918126  1.3204659509622947 23.5257909579014921
  1.8925051521918126  1.3204659509622947 26.1239585060215482
  0.1089847937318968  2.3501819100243049 22.4566103324585917
  0.1089847937318968  2.3501819100243049 27.1931391314644273
