Cl Pd Ti Te Ti
 1.0000000000000000
     3.6238082173345898   -0.0000057074165551    0.0000000000000000
    -1.8119090521719958    3.1382839283115302    0.0000000000000000
    -0.0000000000000001    0.0000000000000000   43.8867310716432470
 Cl  Pd  Ti  Te  Ti 
   2   2   1   2   1
Cartesian
 -0.7076699888922741  1.2982392895762587 14.9999999999999982
  2.9161896031671519  1.2981462065158880 19.0602727285529099
  1.1040194450974301  0.2519307100711806 17.7820690337428502
  1.1040121541070835  2.3441430690737124 16.2762156910758300
  0.5907716368677726  2.7596973586464832 27.1423256059438138
  2.4027275308544538  1.7132434937451186 23.0050057975315170
  0.5904954091242939  0.6674748488889093 28.8867310716432399
  0.5905413648464324  2.7605159505170129 24.7494110856231693
