W  Te Cl Pt
 1.0000000000000000
     3.5907119947453063    0.0000000000000002    0.0000000000000000
    -1.7953559963355112    3.1102155553132800    0.0000000000000000
    -0.0000000000000002    0.0000000000000000   41.1615917079635736
 W   Te  Cl  Pt 
   1   2   2   2
Cartesian
 -0.3449511151661857  1.3944352123815182 16.8119622132334641
  1.4504048825521814  2.4311737308192782 18.6239244264669317
  1.4504048825521814  2.4311737308192782 15.0000000000000000
 -0.6132351701485674  1.7294496731715898 21.9782616659840642
  2.9763744474229630  1.7305981600385985 26.1615917079635807
  1.1818302832115060  0.6937338991613744 24.8128088437074439
  1.1820447489152599  2.7667836736611129 23.3290457940490796
