Br Ag Hg I 
 1.0000000000000000
     4.4105682578480945   -0.0000000000000000    0.0000000000000000
    -2.2052841276576540    3.8220916489624144    0.0000000000000000
     0.0000000000000000    0.0000000000000000   41.2880623290008089
 Br  Ag  Hg  I  
   2   2   1   2
Cartesian
  1.2323821286360472  0.8077236726119144 15.0000000000000000
  1.2352147639677011  3.3531402456813364 18.8414998721338058
  1.2312519198829215  0.8085024156658045 17.8250159142190121
  1.2363511676011469  3.3523521712833211 16.0173027462489586
  0.8684385144948388  0.3719595707474393 24.5448118130910053
  3.0737226438410179  1.6459901204015774 26.2880623290008160
  0.8684385153391010  2.9200206700557159 22.8015612971811876
