W  S  Al N 
 1.0000000000000000
     3.1602681734174283    0.0000000000000000    0.0000000000000000
    -1.5801340867087141    2.7368725209509384    0.0000000000000000
     0.0000000000000000    0.0000000000000000  -37.0817605997026050
 W   S   Al  N  
   1   2   1   1
Cartesian
  0.0413950473153018  0.8208418843390161 -16.5727974379861891
  1.6215291340240154  1.7331327246559955 -15.0000000000000018
  1.6215291340240154  1.7331327246559955 -18.1455948759723711
  0.4599757767608187  2.0710452379756639 -22.0817605997026050
  2.0401098634695329  1.1587543976586843 -22.0817605997026050
