Tl S  Ca Cl
 1.0000000000000000
     4.0975402496318836   -0.0000000000000000    0.0000000000000000
    -2.0487701248159422    3.5485739492104411    0.0000000000000000
     0.0000000000000000    0.0000000000000000   41.4251829687768520
 Tl  S   Ca  Cl 
   2   2   1   2
Cartesian
  2.3159848546027257  1.5160114218889376 22.3414231605215647
  2.3159848546027257  1.5160114218889376 25.2273406523117032
  0.2672147297867833  2.6988694049590842 21.1435808440568849
  0.2672147297867832  2.6988694049590842 26.4251829687768520
  0.2343970502098092  0.6320266906336919 16.4021708164290700
  2.2831671750257501  1.8148846737038384 17.8043416328581401
  0.2343970502098090  2.9977426567739847 15.0000000000000018
