Ga O  Pt O 
 1.0000000000000000
     3.1403740486335572    0.0000000000000000    0.0000000000000000
    -1.5701870243167786    2.7196437035020486    0.0000000000000000
     0.0000000000000000    0.0000000000000000   39.8158519254257186
 Ga  O   Pt  O  
   2   2   1   2
Cartesian
  1.7203609176413210  1.2391621467734928 15.7491739274520555
  1.7203609176413210  1.2391621467734928 18.2624596435107733
  0.1501738933245430  2.1457100479408422 15.0000000000000000
  0.1501738933245430  2.1457100479408422 19.0116335709628004
 -0.3859902024749428  0.9362532310607814 23.8729341479722450
  1.1841968218418355  1.8428011322281310 24.8158519254257186
 -0.3859902024749428  2.7493490333954806 22.9300163705187785
