Br Cd Hg Br
 1.0000000000000000
     4.1237316903546244    0.0014024937248978    0.0000000000000000
    -2.0606412396754816    3.5770742225765173    0.0000000000000000
     0.0000000000000033    0.0000000000000000   42.5113609523388547
 Br  Cd  Hg  Br 
   2   2   1   2
Cartesian
  1.1628436394448172 -0.3571932623792689 15.0000000000000000
  1.1761950305832047  4.3885411219510750 20.7228492099078032
  1.1760150839722976  2.0040021586240950 19.2010592037222949
  1.1626078741331736  2.0276818328429833 16.5215258816320976
  0.7196502569031782  0.3428343450998802 25.9219533762080516
  2.7819243039144328  1.5361274151086510 27.5113609523388547
  0.7204666605710648  2.7280179913925244 24.3325458000772556
