Zr Te Mg Cl
 1.0000000000000000
     3.7108038149035107   -0.0000000000000000    0.0000000000000000
    -1.8554019074517556    3.2136503721666481    0.0000000000000000
     0.0000000000000000    0.0000000000000000   42.5526432464037967
 Zr  Te  Mg  Cl 
   2   2   1   2
Cartesian
  2.1381968162131946  1.3655369786709475 23.0555586292427250
  2.1381968162131946  1.3655369786709475 25.7344496441855526
  0.2827949087614390  2.4367537693931638 21.2373651924929021
  0.2827949087614390  2.4367537693931638 27.5526432464037967
  0.2063764955345843  0.5641813432866774 16.3729058647441299
  2.0617784029863402  1.6353981340088934 17.7458117294882669
  0.2063764955345848  2.7066149247311095 15.0000000000000000
