Ge Te S  Zn
 1.0000000000000000
     3.9330355392667080   -0.0000000000000000    0.0000000000000000
    -1.9665177685130233    3.4063644622145048    0.0000000000000000
    -0.0000000000000000    0.0000000000000000   38.3932803055607224
 Ge  Te  S   Zn 
   1   1   2   2
Cartesian
  2.2628463264657945  1.9206106397427740 16.5598212339094317
  0.2963285572058847  3.0560654604809416 15.0000000000000018
  1.4797965537875302  0.6555577958245837 20.2725376636576478
  1.4798674984991886  2.9262693774887958 23.3932803055607224
  1.4796691786098930  0.6556063988775225 22.8539977526669951
  1.4799948887598235  2.9262209039744191 20.8119660681369432
