Pb Te I  Cd
 1.0000000000000000
     4.3623954114666583    0.0008383076656587    0.0000000000000000
    -2.1804657260163807    3.7852003200365822    0.0000000000000000
    -0.0000000000000031   -0.0000000000000000  -40.5704520286933743
 Pb  Te  I   Cd 
   1   1   2   2
Cartesian
  2.9254691734000939  1.7081948358638204 -23.8859451466469075
  0.7445154609057475  2.9696488399874612 -25.5704520286933850
  1.1193620714884984 -0.2627276295916081 -20.9102076548877029
  1.1309014429500668  4.7528662021392165 -15.0000000000000036
  1.1360770944416296  2.2317955416580326 -16.6115655986229669
  1.1172608749327655  2.2561580890492632 -19.2985898916887635
