Mo S  B  P 
 1.0000000000000000
     3.1999451338485398    0.0000000000000000    0.0000000000000000
    -1.5999725669242699    2.7712337766292312    0.0000000000000000
     0.0000000000000000    0.0000000000000000  -37.0623509956502062
 Mo  S   B   P  
   1   2   1   1
Cartesian
  0.0414336025028694  0.8323190534389314 -16.5635563231757601
  1.6414061694271391  1.7560636456486751 -15.0000000000000000
  1.6414061694271391  1.7560636456486751 -18.1271126463515202
  0.4600621537318010  2.0939410131267473 -22.0623509956501991
  2.0600347206560721  1.1701964209170037 -22.0623509956501991
