Al S  Si Se
 1.0000000000000000
     3.5461220998856824   -0.0000000000000001    0.0000000000000000
    -1.7728691831718679    3.0716186461173427    0.0000000000000000
     0.0000000000000013    0.0000000000000022   41.2484537993939711
 Al  S   Si  Se 
   2   2   1   2
Cartesian
  1.8611597099093125  1.4094657533214687 16.0691806254429039
  1.8611597099093127  1.4094657533214692 18.6673481735629565
  0.0881626155567961  2.4333386353605833 15.0000000000000018
  0.0881626155567963  2.4333386353605833 19.7365287990058391
 -0.1528186508719490  0.7342825603864519 24.8088287704383319
  1.6208364619849367  1.7573326153073714 23.3692007125784116
 -0.1526366842746013  2.7812715092798985 26.2484537993939711
