Ca I  S  Cd
 1.0000000000000000
     4.3505882382342014   -0.0000000000000000    0.0000000000000000
    -2.1752941178845604    3.7691856998137823    0.0000000000000000
     0.0000000000000000    0.0000000000000000   40.6416782734668871
 Ca  I   S   Cd 
   1   2   2   2
Cartesian
 -0.2790153492730513  1.5615316866687219 16.9490723290323366
  1.8962787702548960  2.8179269199399823 18.8981446580646484
  1.8962787702548960  2.8179269199399823 15.0000000000000000
  1.3604520307942327  0.8294768588963501 22.4042698696195259
  1.3607742298791694  3.3410238670516934 25.6416782734668800
  1.3600767148991149  0.8295479262737422 25.2176197151821988
  1.3611497742650203  3.3409528224015732 22.8282207622790949
