Mg Cl Ru Br
 1.0000000000000000
     3.7266630927328981    0.0000000000000000    0.0000000000000000
    -1.8633315463664495    3.2273849096525726    0.0000000000000000
     0.0000000000000000    0.0000000000000000   38.6863676342838687
 Mg  Cl  Ru  Br 
   1   2   1   2
Cartesian
  0.6240323157575227  0.6445180086461826 16.3729058647441263
  2.4873638621239720  1.7203129785303735 17.7458117294882669
  0.6240323157575232  2.7961079484145643 15.0000000000000000
  0.6424737477923450  0.8560842236691609 22.3695184803342713
  2.5058052941587929  1.9318791935533524 23.6863676342838687
  0.6424737477923448  3.0076741634375437 21.0526693263846667
