Hf Cl Ni S 
 1.0000000000000000
     3.3515118520042755    0.0000000000000000    0.0000000000000000
    -1.6757559260021377    2.9024944049203345    0.0000000000000000
     0.0000000000000000    0.0000000000000000   39.7368783698566546
 Hf  Cl  Ni  S  
   1   2   1   2
Cartesian
 -0.6976213056012249  1.3913975444662938 16.7299570918342546
  0.9781346204009127  2.3588956794397387 18.4599141836685092
  0.9781346204009127  2.3588956794397387 15.0000000000000000
  0.3895796264157949  0.9133744821239460 23.5614444416314051
  2.0653355524179329  1.8808726170973908 24.7368783698566617
  0.3895796264157949  2.8483707520708359 22.3860105134061484
