Cl Pd Zn Br
 1.0000000000000000
     3.7332234487388369   -0.0000057074165551    0.0000000000000000
    -1.8666166678741196    3.2330402982685609    0.0000000000000000
    -0.0000000000000001    0.0000000000000000   40.1205099704505912
 Cl  Pd  Zn  Br 
   2   2   1   2
Cartesian
 -0.6222872559029178  1.8622675164571345 15.0000000000000000
  3.1109891187362066  1.8621717952037633 19.0602727285529099
  1.2441032622582968  0.7843670781869589 17.7820690337428502
  1.2440958506366722  2.9397511046102562 16.2762156910758335
  0.6097062042629775  0.1076211832843240 23.6379113651189705
  2.4763162807974943  1.1852974777628074 25.1205099704505912
  0.6097029085931771  2.2629794796578451 22.1553127597873676
