Cl Pt Zn Cl
 1.0000000000000000
     3.6151113804920074    0.0000000000000002    0.0000000000000000
    -1.8075556892088620    3.1313460432066593    0.0000000000000000
    -0.0000000000000002    0.0000000000000000   40.3096351422940558
 Cl  Pt  Zn  Cl 
   2   2   1   2
Cartesian
 -0.6932307579064321  1.6125946986607944 15.0000000000000000
  2.9207707546060906  1.6137509882306726 19.1833300419795165
  1.1140324140424984  0.5698423771076545 17.8345471777233797
  1.1142483370657410  2.6569762407592221 16.3507841280650084
  0.8939886256041523  0.1534498419316275 23.9421681537119397
  2.7015443161958697  1.1972318563338469 25.3096351422940558
  0.8939886262955803  2.2410138707360661 22.5747011651298060
