Zr Se Zr S 
 1.0000000000000000
     3.6390036414516449    0.0000000000000000    0.0000000000000000
    -1.8195018207258224    3.1514695979612033    0.0000000000000000
     0.0000000000000000    0.0000000000000000  -42.3661339200797187
 Zr  Se  Zr  S  
   2   2   1   2
Cartesian
  2.0876641843181716  1.4041397636859927 -19.3588483374326330
  2.0876641843181716  1.4041397636859927 -16.6126058287490466
  0.2681623635923491  2.4546296296730605 -20.9714544236312221
  0.2681623635923491  2.4546296296730605 -15.0000000000000018
  0.1962996529985172  0.5796914702267895 -25.9202514773355901
  2.0158014737243390  1.6301813362138571 -24.4743690345915290
  0.1962996529985171  2.6806712022009243 -27.3661339200797187
