Cr Se Al N 
 1.0000000000000000
     3.1723782840219084    0.0000000000000000    0.0000000000000000
    -1.5861891420109542    2.7473601843770572    0.0000000000000000
     0.0000000000000000    0.0000000000000000   37.0833687052912353
 Cr  Se  Al  N  
   1   2   1   1
Cartesian
  0.0414274862632345  0.8243692937361460 20.5096042625863149
  1.6276166282741886  1.7401560218618317 22.0833687052912353
  1.6276166282741886  1.7401560218618317 18.9358398198813909
  0.4599712147008348  2.0779870080849459 15.0000000000000000
  2.0461603567117894  1.1622002799592599 14.9999999999999982
