Ti Br Ti Te
 1.0000000000000000
     3.5401185803756001    0.0000000000000000    0.0000000000000000
    -1.7700592901878001    3.0658326230145727    0.0000000000000000
     0.0000000000000000    0.0000000000000000   43.0108178928461271
 Ti  Br  Ti  Te 
   1   2   2   2
Cartesian
 -0.4112671795762206  1.3035144234975564 16.6938534583278368
  1.3587921106115795  2.3254586311690808 18.3877069173080052
  1.3587921106115795  2.3254586311690808 15.0000000000000000
  1.9235662836713501  1.2761310060122757 23.9165399903914668
  1.9235662836713501  1.2761310060122757 26.2956563691407190
  0.1535069934835499  2.2980752136837994 22.2013814553338626
  0.1535069934835499  2.2980752136837994 28.0108178928461271
