Mg Cl Ru Cl
 1.0000000000000000
     3.6330473941703083    0.0000000000000000    0.0000000000000000
    -1.8165236970851546    3.1463113365043434    0.0000000000000000
     0.0000000000000000    0.0000000000000000  -38.4851023983955969
 Mg  Cl  Ru  Cl 
   1   2   1   2
Cartesian
  0.6719320326457234  0.9045194844033390 -16.3729058647441406
  2.4884557297308776  1.9532899299047868 -15.0000000000000018
  0.6719320326457238  3.0020603754062347 -17.7458117294882669
  0.7138356254789719  0.6278583727819048 -22.2577262592985647
  2.5303593225641272  1.6766288182833526 -21.0303501096829706
  0.7138356254789733  2.7253992637848001 -23.4851023983956004
