Ti Br Al S 
 1.0000000000000000
     3.5280245325297726    0.0000000000000000    0.0000000000000000
    -1.7640122662648863    3.0553588703455015    0.0000000000000000
     0.0000000000000000    0.0000000000000000   41.9719945628897477
 Ti  Br  Al  S  
   1   2   2   2
Cartesian
 -0.4042826526448223  1.2624759031382142 16.6938534583278368
  1.3597296136200638  2.2809288599200479 18.3877069173080052
  1.3597296136200638  2.2809288599200479 15.0000000000000000
  2.0302843282281389  1.2885784994937266 23.3046463893268054
  2.0302843282281389  1.2885784994937266 25.9028139374468616
  0.2662720619632525  2.3070314562755598 22.2354657638839086
  0.2662720619632525  2.3070314562755598 26.9719945628897406
