Pb S  Br Cd
 1.0000000000000000
     4.0266706474176237    0.0014024937248978    0.0000000000000000
    -2.0121107182069808    3.4930168936752621    0.0000000000000000
     0.0000000000000031    0.0000000000000000   40.2878711516016494
 Pb  S   Br  Cd 
   1   1   2   2
Cartesian
  2.7466620419140999  1.6015112338959274 16.4391638847389423
  0.7337349200392315  2.7653827005460490 15.0000000000000000
  1.0432384081929664 -0.2225546426103280 19.5650219416938569
  1.0563137783526837  4.4116821298169278 25.2878711516016565
  1.0561188565252029  2.0831662444665233 23.7660811454161518
  1.0430274054961866  2.1062894741292255 21.0865478233259545
