Cl Cd Cl
 1.0000000000000000
     3.9158340916563557    0.0012519794577290    0.0000000000000000
    -1.9568238637251996    3.3982026998908674    0.0000000000000000
     0.0000000000000033    0.0000000000000000   41.9821359516706138
 Cl  Cd  Cl 
   2   3   2
Cartesian
  1.1443914398381183 -0.2956317308689924 15.0000000000000000
  1.1567170031817571  4.2129521828632512 20.5111542448488748
  1.1570084176104083  1.9475730406822764 19.0920396605243461
  1.1441576995541982  1.9697457177985607 16.4189511839095843
  0.6605051191952630  0.2645529472316242 25.5442645350583177
  2.6187865590577668  1.3981218335003998 26.9821359516706138
  0.6612339072639153  2.5304387403114457 24.1063931184460500
