Al Te Ca Cl
 1.0000000000000000
     4.1264673869181383   -0.0000000000000000    0.0000000000000000
    -2.0632336934590692    3.5736255849590970    0.0000000000000000
     0.0000000000000000    0.0000000000000000   35.8953470489157382
 Al  Te  Ca  Cl 
   2   2   1   2
Cartesian
  2.3462942663155619  1.5838875975254072 16.2795918494368586
  2.3462942663155619  1.5838875975254072 18.8534102305006570
  0.2830605728564924  2.7750961258451059 15.0000000000000000
  0.2830605728564924  2.7750961258451059 20.1330020799375866
  0.0369771055094769  0.7561574024508309 19.4931762324866646
  2.1002107989685452  1.9473659307705291 20.8953470489157382
  0.0369771055094770  3.1385744590902274 18.0910054160575982
