Hg Se S  Cd
 1.0000000000000000
     4.3896685439302043   -0.0000000000000000    0.0000000000000000
    -2.1948342707325619    3.8030302373341831    0.0000000000000000
    -0.0000000000000000    0.0000000000000000  -37.5304203642138461
 Hg  Se  S   Cd 
   1   1   2   2
Cartesian
  2.4703324704065710  1.2544620080842497 -22.1364229819386864
  0.2754981988523162  2.5221387538623108 -22.5304203642138532
  1.5802284869590557  1.2943613972034744 -18.2374084038473576
  1.5805535802748292  3.8284602650233506 -15.0000000000000036
  1.5798497996899736  1.2944331027140632 -15.4240585582846883
  1.5809324980871224  3.8283885824441075 -17.8134575111877886
