Ca Br Ge F 
 1.0000000000000000
     4.1845870611202587   -0.0000000000000000    0.0000000000000000
    -2.0922935305601293    3.6239586992785124    0.0000000000000000
     0.0000000000000013    0.0000000000000022   41.1429567208161444
 Ca  Br  Ge  F  
   1   2   2   2
Cartesian
 -0.4745358854189423  1.5558346907346756 16.7571598031843898
  1.6177576451411873  2.7638209238275127 18.5143196063686482
  1.6177576451411873  2.7638209238275122 15.0000000000000036
  1.1479344803561942  0.8364137274602411 23.7689700987508630
  1.1479344840111765  3.2523861936459149 24.3620499840283884
  1.1479344803561942  0.8364137274602405 21.9880633931721547
  1.1479344840111767  3.2523861936459149 26.1429567208161444
