Hf I  Zr I 
 1.0000000000000000
     3.8011082971173060   -0.0000000000000000    0.0000000000000000
    -1.9005541485586530    3.2918563478393947    0.0000000000000000
     0.0000000000000000    0.0000000000000000   41.7709249755933669
 Hf  I   Zr  I  
   1   2   1   2
Cartesian
  0.1896294813525893  1.5152416012235346 16.9476853944779791
  2.0901836299112420  2.6125270505033322 18.8953707810581477
  2.0901836299112420  2.6125270505033322 15.0000000000000000
  0.3195898643603550  1.4625110314700258 24.8317797390042294
  2.2201440129190084  2.5597964807498235 26.7709249755933598
  2.2201440129190084  2.5597964807498235 22.8926345030411333
