Ca I  Se Cd
 1.0000000000000000
     4.4191630855321495   -0.0000000000000000    0.0000000000000000
    -2.2095815414943631    3.8283305741172766    0.0000000000000000
     0.0000000000000000    0.0000000000000000   40.7983410008925489
 Ca  I   Se  Cd 
   1   2   2   2
Cartesian
 -0.2017794235411385  1.6656790067574545 16.9490723290323331
  2.0078021196488405  2.9417891981298796 18.8981446580646448
  2.0078021196488405  2.9417891981298796 14.9999999999999964
  1.4016436904644212  0.7819913389197254 22.2097493846363108
  1.4019981011638625  3.3332744076032683 25.7983410008925489
  1.4012475560536806  0.7821954320289899 25.1000664880208220
  1.4023961724349836  3.3330697288185052 22.9078122219360196
