Hf I  Hg F 
 1.0000000000000000
     3.7161460154270367   -0.0000000000000000    0.0000000000000000
    -1.8580730077135164    3.2182768535321302    0.0000000000000000
     0.0000000000000002    0.0000000000000000   39.8412479226450387
 Hf  I   Hg  F  
   1   2   1   2
Cartesian
 -0.7591968083185172  1.5965938687297658 16.9476853944779791
  1.0988761993950016  2.6693528199071426 18.8953707810581477
  1.0988761993950016  2.6693528199071426 15.0000000000000000
  0.3022070276435689  1.0241173688577261 23.8125757702848233
  2.1602800353570779  2.0968763200351024 24.8412479226450387
  0.3022070276435673  3.1696352712124791 22.7839036179246364
