Zr O  B  P 
 1.0000000000000000
     3.2423201047518360    0.0000000000000000    0.0000000000000000
    -1.6211600523759180    2.8079315779161123    0.0000000000000000
     0.0000000000000000    0.0000000000000000   35.9042510101164254
 Zr  O   B   P  
   1   2   1   1
Cartesian
  0.5947599881316018  0.2494483099958660 15.9613319724315765
  2.2159200405075197  1.1854255026345699 16.9226639448631531
  0.5947599881316018  2.1214026952732739 15.0000000000000000
  0.2595929961554534  2.3219436541740146 20.9042510101164254
  1.8807530485313722  1.3859664615353104 20.9042510101164254
