Hg F  Ru Br
 1.0000000000000000
     3.7197686947751127   -0.0000000000000000    0.0000000000000000
    -1.8598843473875546    3.2214141858773289    0.0000000000000000
     0.0000000000000002    0.0000000000000000   38.1239452595728352
 Hg  F   Ru  Br 
   1   2   1   2
Cartesian
  0.5065552700815528  0.7342636299868257 16.0286721523601869
  2.3664396174690996  1.8080683586126018 17.0573443047204023
  0.5065552700815510  2.8818730872383780 15.0000000000000000
  0.6543912380867967  0.7918374696542942 21.8070961056232306
  2.5142755854743530  1.8656421982800708 23.1239452595728352
  0.6543912380867980  2.9394469269058474 20.4902469516736261
