Br Cd Hg Cl
 1.0000000000000000
     4.0491114989982329    0.0014024937248978    0.0000000000000000
    -2.0233311439972859    3.5124512412266258    0.0000000000000000
     0.0000000000000033    0.0000000000000000   42.2507298269547462
 Br  Cd  Hg  Cl 
   2   2   1   2
Cartesian
  1.1619186966694977 -0.3412870407751963 14.9999999999999982
  1.1750578838419730  4.3187283683181992 20.7228492099077997
  1.1748664243367830  1.9772597519861461 19.2010592037222949
  1.1617019687698134  2.0005116335705706 16.5215258816320940
  0.7004896787963799  0.3184527855068787 25.7911255383704017
  2.7254536301294423  1.4902048617323529 27.2507298269547462
  0.7013060824642676  2.6605544442329299 24.3315212497860784
