Pb S  Ru Br
 1.0000000000000000
     3.8142001047299239    0.0000000000000000    0.0000000000000000
    -1.9071000523649624    3.3031941858133802    0.0000000000000000
     0.0000000000000000    0.0000000000000000   39.0987855388121588
 Pb  S   Ru  Br 
   1   2   1   2
Cartesian
  0.5672219381613781  0.7501163369557859 16.5419903580376335
  2.4743219905263398  1.8511810655602461 18.0839807160752670
  0.5672219381613779  2.9522457941647060 15.0000000000000000
  0.7070727188265489  0.8521574129085229 22.7819363848625542
  2.6141727711915101  1.9532221415129833 24.0987855388121588
  0.7070727188265487  3.0542868701174437 21.4650872309129532
