Bi O  Cd Cl
 1.0000000000000000
     3.9379616966447610    0.0000000000000000    0.0000000000000000
    -1.9689808483223807    3.4103748684244319    0.0000000000000000
     0.0000000000000000    0.0000000000000000   40.2354056089592049
 Bi  O   Cd  Cl 
   2   2   1   2
Cartesian
  2.1827759748348758  1.2444508490636541 15.1279491455499393
  2.1827759748348758  1.2444508490636541 18.2805653489927167
  0.2137951265124950  2.3812424718717979 15.0000000000000000
  0.2137951265124950  2.3812424718717979 18.4085143927414876
  0.8378620025571356  0.1460569657312618 23.7975341923469124
  2.8068428508795153  1.2828485885394061 25.2354056089592049
  0.8378620025571357  2.4196402113475504 22.3596627757346411
