Hg F  Ru Cl
 1.0000000000000000
     3.6261529962125234   -0.0000000000000000    0.0000000000000000
    -1.8130764981062599    3.1403406127291005    0.0000000000000000
     0.0000000000000002    0.0000000000000000   37.9586127379341178
 Hg  F   Ru  Cl 
   1   2   1   2
Cartesian
  0.4778890899886920  0.7016696769901261 16.0286721523601869
  2.2909655880949442  1.7484498812331593 17.0573443047204023
  0.4778890899886903  2.7952300854761924 15.0000000000000000
  0.5871206202294321  0.7593680379538865 21.7312365883185237
  2.4001971183356954  1.8061482421969197 22.9586127379341178
  0.5871206202294348  2.8529284464399529 20.5038604492214880
