Cl Pt Zr Te Zr
 1.0000000000000000
     3.6798158650832127    0.0000000000000002    0.0000000000000000
    -1.8399079315044644    3.1873861149971754    0.0000000000000000
    -0.0000000000000002    0.0000000000000000   44.4120694889127350
 Cl  Pt  Zr  Te  Zr 
   2   2   1   2   1
Cartesian
 -0.2358013972594968  1.4674513435292098 14.9999999999999982
  3.4428847350522398  1.4686283266122331 19.1833300419795165
  1.6038087813999311  0.4060374259233628 17.8345471777233797
  1.6040285690740048  2.5305236389932260 16.3507841280650084
  0.5634811402198168  2.9442669386313423 27.5739452472245219
  2.4033595932526488  1.8818575404469686 23.0243446934457623
  0.5633846422661195  0.8194764105041619 29.4120694889127350
  0.5633551308957959  2.9447764631616109 24.8624670273758355
