Ti Br Zr Cl
 1.0000000000000000
     3.4410792757766524    0.0000000000000000    0.0000000000000000
    -1.7205396378883262    2.9800620692587390    0.0000000000000000
     0.0000000000000000    0.0000000000000000   40.8003315995912246
 Ti  Br  Zr  Cl 
   1   2   1   2
Cartesian
  0.2378321893565875  1.4540356627057862 16.6938534583278368
  1.9583718272449138  2.4473896857920323 18.3877069173080017
  1.9583718272449138  2.4473896857920323 15.0000000000000000
  0.3899284769841919  1.3901404830432935 24.0924323796724309
  2.1104681148725177  2.3834945061295398 25.8003315995912246
  2.1104681148725177  2.3834945061295398 22.3845331597536230
