Ge S  Pb O 
 1.0000000000000000
     3.4452773733905824   -0.0000000000000000    0.0000000000000000
    -1.7226386866952912    2.9836977284399686    0.0000000000000000
     0.0000000000000000    0.0000000000000000   37.1266889143071026
 Ge  S   Pb  O  
   1   1   1   2
Cartesian
  1.9315051125454947  1.3894544580425929 16.3610326690029417
  0.2088664258502039  2.3840203675225822 15.0000000000000000
  0.5468687999254289  0.2815780333451037 21.0680697581624230
  2.2695074866207201  1.2761439428250931 22.1266889143071026
  0.5468687999254289  2.2707098523050826 20.0094506020177434
