Hf Se Hg F 
 1.0000000000000000
     3.7158684159952911   -0.0000000000000000    0.0000000000000000
    -1.8579342079976437    3.2180364453721624    0.0000000000000000
     0.0000000000000002    0.0000000000000000   38.5365260265855909
 Hf  Se  Hg  F  
   1   2   1   2
Cartesian
  0.6365642957287059  0.7556522360717981 16.5758890207771756
  2.4944985037263518  1.8283310511958522 18.1517780415566818
  0.6365642957287069  2.9010098663199062 15.0000000000000018
  0.5813101770089421  0.8069249473689015 22.5078538742253755
  2.4392443850065781  1.8796037624929556 23.5365260265855909
  0.5813101770089403  2.9522825776170096 21.4791817218651886
