Ga Te Cd Br
 1.0000000000000000
     4.0961460172791728   -0.0000000000000000    0.0000000000000000
    -2.0480730086395869    3.5473665085742154    0.0000000000000000
     0.0000000000000000    0.0000000000000000   42.1379329076784472
 Ga  Te  Cd  Br 
   2   2   1   2
Cartesian
  2.2230903719516566  1.5751277934558467 16.2730454743835011
  2.2230903719516566  1.5751277934558467 18.7468688976248288
  0.1750173633120706  2.7575832963139182 14.9999999999999964
  0.1750173633120706  2.7575832963139182 20.0199143598030744
  0.0080723369099543  0.6988346911456889 25.5713250569624932
  2.0561453455495409  1.8812901940037603 27.1379329076784472
  0.0080723369099543  3.0637456968618317 24.0047172062465606
