Si F  Hg Cl
 1.0000000000000000
     3.9691493414296151    0.0000000000000000    0.0000000000000000
    -1.9845746707124310    3.4373841610911953    0.0000000000000000
     0.0000000000000012    0.0000000000000022   40.8042744364407923
 Si  F   Hg  Cl 
   2   2   1   2
Cartesian
  1.1714291923515954  0.7236224335195514 16.6424290354395481
  1.1714291903789362  3.0152118742470138 17.3462560958598786
  1.1714291923515954  0.7236224335195508 15.0000000000000000
  1.1714291903789362  3.0152118742470146 18.9886851313004463
  0.6517882676321731 -0.0196588143765400 24.3446701478564407
  2.6363629383477756  1.1261359059871923 25.8042744364407852
  0.6517882676337582  2.2719306263509242 22.8850658592721175
