Cl Pd Hf S 
 1.0000000000000000
     3.6602607226587280   -0.0000057074165551    0.0000000000000000
    -1.8301353048340649    3.1698527239538210    0.0000000000000000
    -0.0000000000000001    0.0000000000000000   40.1832799481967982
 Cl  Pd  Hf  S  
   2   2   1   2
Cartesian
 -0.7112231415980739  1.9856217396176634 15.0000000000000000
  2.9490894725712309  1.9855277776234994 19.0602727285529099
  1.1186903690252670  0.9287880953199207 17.7820690337428502
  1.1186830378457051  3.0420465693234098 16.2762156910758335
  0.5941770774781774  0.0875968818240796 23.7351756462056045
  2.4243057909726407  1.1442106515309831 25.1832799481967982
  0.5941737818083769  2.2008301286544421 22.2870713442147483
