In Se Hg Cl
 1.0000000000000000
     4.0341199191949446   -0.0000000000000000    0.0000000000000000
    -2.0170599595974723    3.4936503319356480    0.0000000000000000
     0.0000000000000000    0.0000000000000000   41.6504078876895107
 In  Se  Hg  Cl 
   2   2   1   2
Cartesian
  2.3024428123409399  1.5335503003859179 22.5596319505608705
  2.3024428123409399  1.5335503003859179 25.3738776639471340
  0.2853828527434679  2.6981004110311337 21.2831017044207442
  0.2853828527434679  2.6981004110311337 26.6504078876895107
  0.2248952251284719  0.6095324731637939 16.4596042885843232
  2.2419551847259465  1.7740825838090104 17.9192085771686678
  0.2248952251284727  2.9386326944542267 15.0000000000000000
