S  Hf Se Zn
 1.0000000000000000
     4.1116484821444494    0.0000000000000000    0.0000000000000000
    -2.0558242387235857    3.5614879419581342    0.0000000000000000
     0.0000000000000000    0.0000000000000000   40.0619261474593102
 S   Hf  Se  Zn 
   2   2   2   2
Cartesian
  1.2066505657773783  0.8271459397158356 15.0000000000000000
  1.2069719082843917  3.2009605289098473 18.3254866465823696
  1.2067764576846480  0.8270225936462640 17.6045811352982824
  1.2068460065242335  3.2010838801322103 15.7209963454440516
  1.2791890113446729  0.9758041513209603 21.6486225567683270
  1.2792952426351689  3.3499948578648580 25.0619261474593102
  1.2790875557027057  0.9758595351065322 24.3043197383782470
  1.2793966686144189  3.3499394720779079 22.4066041588565668
