Zr Cl Si S 
 1.0000000000000000
     3.3574585703264930   -0.0000000000000001    0.0000000000000000
    -1.6785485444054209    2.9079412775895221    0.0000000000000000
     0.0000000000000012    0.0000000000000021   40.0526752510008137
 Zr  Cl  Si  S  
   1   2   1   2
Cartesian
 -0.3208018261000995  1.0909196085508381 16.7078992199188079
  1.3579877059824226  2.0602333677473457 18.4157984398376016
  1.3579877059824221  2.0602333677473452 15.0000000000000000
  3.1030666319578777  0.7437311910997095 23.7269952052794935
  1.4247315940057768  1.7133121915846963 22.4007732975064755
 -0.2543391564768261  2.6830077769888314 25.0526752510008137
