Br Cd I  Zn
 1.0000000000000000
     4.1479230190577869    0.0014024937249013    0.0000000000000000
    -2.0713509355644417    3.5988240131854905    0.0000000000000000
     0.0000000000000047    0.0000000000000023   43.2559783062075880
 Br  Cd  I   Zn 
   2   2   2   2
Cartesian
  0.5939373236805690 -0.2259840806973484 15.0000000000000036
  0.6091959238582856  4.5486002533517365 20.7228492099078068
  0.6080959803249495  2.1495653474200123 19.2010592037222949
  0.5946192461633866  2.1733890013815440 16.5215258816321011
  0.4897225208565760  0.7687398657472834 22.9526282727710935
  0.4803526136612500  3.1578433491687057 28.2559783062075951
  2.5528838719249589  1.9561588950756710 26.7900220116665864
  2.5654617365834826  1.9723402912077777 24.4184775088859283
