Pb I  Ag
 1.0000000000000000
     4.5387210335893062    0.0000000000000000    0.0000000000000000
    -2.2693605154879979    3.9330779214440081    0.0000000000000000
    -0.0000000000000000    0.0000000000000000  -42.1022610163534807
 Pb  I   Ag 
   1   4   2
Cartesian
 -0.3277788066631355  1.6939403565408950 -17.0310965280492610
  1.9415817105670690  3.0049663303555643 -15.0000000000000018
  1.9415817105670690  3.0049663303555643 -19.0621930560985184
  1.4236573135659811  1.1432240067648727 -27.1022610163534807
  1.4233981832448712  3.7638992514154697 -22.9555418207188850
  1.4219340003471863  1.1441977606137061 -24.2001265457573780
  1.4251367282415743  3.7629187665960417 -25.8586520052373068
