Hf Te Zr Te
 1.0000000000000000
     3.9159263206648958    0.0000000000000000    0.0000000000000000
    -1.9579631603324479    3.3912916730439275    0.0000000000000000
    -0.0000000000000000    0.0000000000000000   41.4182595356326857
 Hf  Te  Zr  Te 
   1   2   1   2
Cartesian
  0.1522300949365535  1.4577904401904958 16.8494380278571079
  2.1101932552690008  2.5882209978718049 18.6988761198817670
  2.1101932552690008  2.5882209978718049 15.0000000000000018
  0.3070647011119128  1.5554085040455889 24.5566949735582938
  2.2650278614443606  2.6858390617268979 26.4182595356326857
  2.2650278614443606  2.6858390617268979 22.6951304114840866
