Hg Se Cl Ag
 1.0000000000000000
     4.4320622643678433    0.0000000000000000    0.0000000000000000
    -2.2160311309271661    3.8463491628019284    0.0000000000000000
    -0.0000000000000000    0.0000000000000000   37.4639131399450207
 Hg  Se  Cl  Ag 
   1   1   2   2
Cartesian
  2.3996954702195969  1.8035735902704477 15.3939973822751668
  0.1836643384545943  3.0856899778710911 15.0000000000000000
  1.8822560249921270  0.6105843612223074 19.1770565982264145
  1.8777118254952296  3.1695326346485988 22.4639131399450136
  1.8776519620568779  0.6127628333716517 22.1545587905587560
  1.8823519655903835  3.1673352670825903 19.4851050585626808
