Ba Br Te Cd
 1.0000000000000000
     4.6805286707777851   -0.0000000000000000    0.0000000000000000
    -2.3402643340554601    4.0543478415657823    0.0000000000000000
    -0.0000000000000000    0.0000000000000000   41.0868490896170186
 Ba  Br  Te  Cd 
   1   2   2   2
Cartesian
 -0.4198654715326756  1.7904136228415528 16.8371869788974422
  1.9203988643006937  3.1418629033634802 18.6743739577948844
  1.9203988643006937  3.1418629033634802 15.0000000000000000
  1.5583296797432198  1.1081162347081799 22.1000475016508666
  1.5584393125896532  3.8104770490668969 26.0868490896170186
  1.5579473152079013  1.1083610859756972 25.1439067111026162
  1.5588231750020423  3.8102317855502639 23.0425400206484809
