Se Zn I 
 1.0000000000000000
     4.0876044744659907    0.0000000000000000    0.0000000000000000
    -2.0438022360690535    3.5401325907084304    0.0000000000000000
     0.0000000000000000    0.0000000000000000   40.5461385233476364
 Se  Zn  I  
   2   3   2
Cartesian
  1.2445077468510461  0.8709528221484992 14.9999999999999982
  1.2446133561439374  3.2309074348747799 18.4133035906909797
  1.2444068844991352  0.8710078738424809 17.6556971816099164
  1.2447141890065923  3.2308523811914207 15.7579816020882362
  0.7202904753483380  0.0409179704167277 23.9187327548352542
  2.7640927129693136  1.2209621673195381 25.5461385233476364
  0.7202904761242989  2.4010063642223489 22.2913269863228649
