Cl Pd Zr Te Zr
 1.0000000000000000
     3.6983118884730199   -0.0000057074165551    0.0000000000000000
    -1.8491608877412109    3.2028103445883662    0.0000000000000000
     0.0000000000000001   -0.0000000000000000  -44.2975372081756333
 Cl  Pd  Zr  Te  Zr 
   2   2   1   2   1
Cartesian
 -0.2543634652827471  1.5068650397513901 -29.2975372081756298
  3.4440008541507372  1.5067701601559700 -25.2372644796227199
  1.5945733567874398  0.4390432951624226 -26.5154681744327796
  1.5945659836561248  2.5742737785479655 -28.0213215170997998
  0.5804368296525751  2.9632933610924632 -16.8381242416882166
  2.4295647943068275  1.8957409053041760 -21.3877247954669762
  0.5803431428244207  0.8282225620010981 -15.0000000000000071
  0.5803101861718238  2.9638053510260334 -19.5496024615369066
