S  Ir Si S 
 1.0000000000000000
     3.2920548313831555   -0.0000000000000001    0.0000000000000000
    -1.6458466739971560    2.8516183398372044    0.0000000000000000
     0.0000000000000012    0.0000000000000022   41.1578827362931889
 S   Ir  Si  S  
   2   2   1   2
Cartesian
  0.3090965540387063  0.6887031411305369 15.0000000000000018
  0.3090683780969478  2.5899257344962092 19.6502937780201563
  0.3089053955701470  0.6890530062055455 18.3976254675456090
  0.3092597828495935  2.5895756028548966 16.2526844590143291
  2.6828497014607837  0.8597868783557467 24.8322026905718687
  1.0372100272461515  1.8105883901498843 23.5059807827988507
 -0.6091510275823857  2.7615022675063634 26.1578827362931889
