Pb Te Ca Br
 1.0000000000000000
     4.3113019963857049    0.0000000000000000    0.0000000000000000
    -2.1556509981928524    3.7336970522565767    0.0000000000000000
     0.0000000000000000    0.0000000000000000   38.1306589333472203
 Pb  Te  Ca  Br 
   1   1   1   2
Cartesian
  2.3736768075301939  1.4883815916343404 16.6845068820464775
  0.2180258093373413  2.7329472757198654 15.0000000000000000
  0.7039271086968687  0.4653862946850347 21.5702859388797847
  2.8595781068897201  1.7099519787705608 23.1306589333472239
  0.7039271086968684  2.9545176628560865 20.0099129444123420
