Hf I  Zr Te
 1.0000000000000000
     3.7609185117282573   -0.0000000000000000    0.0000000000000000
    -1.8804592558641287    3.2570509727198340    0.0000000000000000
     0.0000000000000000    0.0000000000000000   43.9957333449638384
 Hf  I   Zr  Te 
   1   2   2   2
Cartesian
 -0.4212392133600628  1.4499429556190029 16.9476853944779826
  1.4592200425040658  2.5356266131922807 18.8953707810581477
  1.4592200425040658  2.5356266131922807 15.0000000000000018
  2.0502035782772969  1.3224195367282150 24.4986487278027631
  2.0502035782772969  1.3224195367282150 27.1775397427455907
  0.1697443224131685  2.4081031943014932 22.6804552910529402
  0.1697443224131685  2.4081031943014932 28.9957333449638348
