Br Cd I  Cu
 1.0000000000000000
     4.1406085896736400    0.0014024937248978    0.0000000000000000
    -2.0690796881420077    3.5916900440575912    0.0000000000000000
     0.0000000000000033    0.0000000000000000   42.1813108640117207
 Br  Cd  I   Cu 
   2   2   2   2
Cartesian
  1.3469632906321332 -0.2427278820260944 14.9999999999999982
  1.3603626776679276  4.5223936183647186 20.7228492099077997
  1.3601853341410270  2.1281134068059773 19.2010592037222949
  1.3467232204113255  2.1518898351616391 16.5215258816320940
  1.3083858370201820  1.0030334924386852 23.3255079333717248
  1.3092022207844296  3.3979610316863376 27.1813108640117207
  1.3083858370201822  1.0030334924386857 25.9468069651317208
  1.3092022207844292  3.3979610316863367 24.5626070878517240
