Hg F  Zn Br
 1.0000000000000000
     3.7286220019616558   -0.0000000000000000    0.0000000000000000
    -1.8643110009808261    3.2290813748083829    0.0000000000000000
     0.0000000000000002    0.0000000000000000   38.4972164409797202
 Hg  F   Zn  Br 
   1   2   1   2
Cartesian
  0.5156117184560698  0.7217665875865108 16.0286721523601869
  2.3799227194368879  1.7981270458559717 17.0573443047204023
  0.5156117184560680  2.8744875041254323 15.0000000000000000
  0.7342754538082349  0.7504550801223031 22.0146178356480995
  2.5985864547890620  1.8268155383917637 23.4972164409797202
  0.7342754538082363  2.9031759966612243 20.5320192303164966
