Pb Cl I  Zn
 1.0000000000000000
     4.1858610777348737    0.0000000000000035    0.0000000000000000
    -2.0915445704048157    3.6258615154316440    0.0000000000000000
     0.0000000000000013    0.0000000000000022   42.0027123630995405
 Pb  Cl  I   Zn 
   1   2   2   2
Cartesian
 -0.4714866514381600  1.5762442901917648 16.7004028302812522
  1.6219058769168171  2.7848647953356491 18.4008056605625043
  1.6219058769168171  2.7848647953356487 15.0000000000000000
  0.4943781004344525  0.8221179179187316 21.6993623296630425
  0.4840938401087624  3.2287052767013482 27.0027123630995405
  2.5759980893745142  2.0175224010506128 25.5367560685585318
  2.5886853836987562  2.0338179099040596 23.1652115657778772
