Mo Se Sn O 
 1.0000000000000000
     3.2696284279726022    0.0000000000000000    0.0000000000000000
    -1.6348142139863011    2.8315812795600519    0.0000000000000000
     0.0000000000000000    0.0000000000000000   39.3082836654499488
 Mo  Se  Sn  O  
   1   2   1   2
Cartesian
 -0.7670587597442612  1.4184715520891711 16.6690294767632068
  0.8677554542420400  2.3623319786091881 18.3380589535264100
  0.8677554542420400  2.3623319786091881 15.0000000000000000
  0.4116177901217925  0.8940609510186235 23.2993213407775350
  2.0464320041080937  1.8379213775386409 24.3082836654499488
  0.4116177901217925  2.7817818040586579 22.2903590161051213
