Pb S  Pt Se
 1.0000000000000000
     3.7981299706279796   -0.0000000000000000    0.0000000000000000
    -1.8990649853139898    3.2892770414388739    0.0000000000000000
     0.0000000000000000    0.0000000000000000   39.0978535677708479
 Pb  S   Pt  Se 
   1   2   1   2
Cartesian
  0.5563113900140977  0.7485424342461275 16.5419903580376335
  2.4553763753280875  1.8449681147257522 18.0839807160752670
  0.5563113900140977  2.9413937952053768 15.0000000000000000
  0.6979770457488034  0.8323992400371638 22.7880448459631033
  2.5970420310627933  1.9288249205167884 24.0978535677708479
  0.6979770457488033  3.0252506009964133 21.4782361180657162
