S  Zn Br
 1.0000000000000000
     3.8603621517420574    0.0000000000000000    0.0000000000000000
    -1.9301810747506982    3.3434274624390912    0.0000000000000000
    -0.0000000000000000    0.0000000000000000   39.9959233099254590
 S   Zn  Br 
   2   3   2
Cartesian
  1.1362742742072962  0.6375844135943332 15.0000000000000000
  1.1363439080387963  2.8663416548200820 18.1207426419030746
  1.1361492526279304  0.6376321186428552 17.5814600890093473
  1.1364689444224612  2.8662940769167293 15.5394284044792954
  0.7604363950433839 -0.1168333268914348 23.5133247045938383
  2.6906174712878550  0.9976424939215953 24.9959233099254590
  0.7604363957902711  2.1121183147346252 22.0307260992622354
