S  Hf Ge I 
 1.0000000000000000
     4.2242098181025849    0.0000000000000000    0.0000000000000000
    -2.1121049078665957    3.6588056431838512    0.0000000000000000
    -0.0000000000000000    0.0000000000000000   40.6942488869138828
 S   Hf  Ge  I  
   2   2   1   2
Cartesian
  1.2418181595765079  0.9098633503151811 15.0000000000000000
  1.2421482984035486  3.3485424519605296 18.3254866465823731
  1.2419474979266107  0.9097366338127618 17.6045811352982859
  1.2420189499308223  3.3486691737565404 15.7209963454440533
  0.7559947055265936  0.0637876893442362 23.9494729929326375
  2.8680996149727855  1.2833895704055194 25.6942488869138828
  0.7559947063163917  2.5029914514668024 22.2046970989513888
