Zr I  In S 
 1.0000000000000000
     3.8717980560622598    0.0000000000000000    0.0000000000000000
    -1.9358990280311299    3.3530754748731231    0.0000000000000000
     0.0000000000000000    0.0000000000000000   42.7439456615979836
 Zr  I   In  S  
   1   2   2   2
Cartesian
 -0.2668761417370095  1.1978455800495273 16.9391452359630961
  1.6690228862941208  2.3155374050072353 18.8782904725522265
  1.6690228862941208  2.3155374050072353 15.0000000000000000
  2.0754787669277648  1.3793049781615949 23.7472654224168238
  2.0754787669277648  1.3793049781615949 26.5662229306702287
  0.1395797388966353  2.4969968031193028 22.5695426914821660
  0.1395797388966353  2.4969968031193028 27.7439456615979836
