Ru Br Sn Se
 1.0000000000000000
     3.8226207424501717    0.0000000000000000    0.0000000000000000
    -1.9113103712250861    3.3104866719951804    0.0000000000000000
     0.0000000000000000    0.0000000000000000   39.2575399751664804
 Ru  Br  Sn  Se 
   1   2   1   2
Cartesian
  0.5095123537299775  0.7687654899407403 16.3168491539496046
  2.4208227249550625  1.8722610472724674 17.6336983078992091
  0.5095123537299775  2.9757566046041943 15.0000000000000000
  0.6060559855978620  0.6049171219497936 22.6646089555922750
  2.5173663568229476  1.7084126792815206 24.2575399751664804
  0.6060559855978618  2.8119082366132475 21.0716779360180091
