S  Cd Hg I 
 1.0000000000000000
     4.3513029693422816   -0.0000000000000000    0.0000000000000000
    -2.1756514834386009    3.7698046751102554    0.0000000000000000
     0.0000000000000000    0.0000000000000000   40.6140234620545186
 S   Cd  Hg  I  
   2   2   1   2
Cartesian
  1.2278530852194467  0.7104050050835681 15.0000000000000000
  1.2281753372363335  3.2223644592359495 18.2374084038473541
  1.2274777076660126  0.7104760841316377 17.8133498455626693
  1.2285509433180379  3.2222934029188837 15.4239508926595690
  0.8342876100949006 -0.1325499328066576 23.8707729461447080
  3.0099390951768892  1.1240516255634279 25.6140234620545186
  0.8342876109165940  2.3806531839335134 22.1275224302348903
