Hg Se Ca Br
 1.0000000000000000
     4.3812735399498752   -0.0000000000000000    0.0000000000000000
    -2.1906367699749381    3.7942941865251667    0.0000000000000000
     0.0000000000000000    0.0000000000000000  -37.0999424687402310
 Hg  Se  Ca  Br 
   1   1   1   2
Cartesian
  2.9849714858210854  1.4572879279249316 -21.7059450864650714
  0.7943347158461480  2.7220526567666541 -22.0999424687402382
  0.5742330397778606  0.5306886030111079 -16.5603729944674392
  2.7648698097527973  1.7954533318528307 -15.0000000000000000
  0.5742330397778599  3.0602180606945537 -18.1207459889348819
