Mo S  Zn F 
 1.0000000000000000
     3.1644527824256370    0.0000000000000000    0.0000000000000000
    -1.5822263912128185    2.7404964986569524    0.0000000000000000
     0.0000000000000000    0.0000000000000000   38.7712317150061168
 Mo  S   Zn  F  
   1   2   1   2
Cartesian
 -0.8062609177815080  1.3776320882369353 22.2076753918303496
  0.7759654734313105  2.2911309211225861 23.7712317150061097
  0.7759654734313105  2.2911309211225861 20.6441190686545895
  0.7852476296547971  1.0203639100703104 15.9957669043444994
  2.3674740208676148  1.9338627429559607 16.9915338086889847
  0.7852476296547972  2.8473615758416111 14.9999999999999964
