Al Se Al S  Zn
 1.0000000000000000
     3.8574197730704229    0.0000000000000000    0.0000000000000000
    -1.9287098854148808    3.3408757956070954    0.0000000000000000
    -0.0000000000000000    0.0000000000000000   41.9636871770288948
 Al  Se  Al  S   Zn 
   1   2   1   2   2
Cartesian
  0.6797196105106756  2.9138798950964140 18.7386451449391913
  2.6084688222787675  1.8003098142347518 15.0000000000000018
  0.6796219328474733  0.6867625672220956 19.8990279270139681
  0.6796612571285542  2.9139167738722995 16.1603825001332311
  1.1600093302510783  0.2256549958185080 23.8429445351258096
  1.1600789110080496  2.4527112741871600 26.9636871770288877
  1.1598844039635050  0.2257026644590651 26.4244046241351569
  1.1602038520886382  2.4526637325947362 24.3823729396051050
