Br Cd Mg I 
 1.0000000000000000
     4.1557982240098026    0.0014024937248978    0.0000000000000000
    -2.0766745065030703    3.6048446553332130    0.0000000000000000
     0.0000000000000033    0.0000000000000000   42.6330480720017277
 Br  Cd  Mg  I  
   2   2   1   2
Cartesian
  1.1548791148125184 -0.3019382508026618 15.0000000000000018
  1.1683216963578331  4.4806321474048820 20.7228492099078068
  1.1681466971828038  2.0775845645427831 19.2010592037222949
  1.1546351685541341  2.1014480740837347 16.5215258816321011
  0.6907110640829908  0.3209232028410883 25.9587304153338607
  2.7690183779218347  1.5234730837687587 27.6330480720017277
  0.6915274677508780  2.7246204709715314 24.2844127586659937
