Sr Cl S  Cd
 1.0000000000000000
     4.2699293062658459   -0.0000000000000000    0.0000000000000000
    -2.1349646519003826    3.6993330156870656    0.0000000000000000
     0.0000000000000000    0.0000000000000000   40.0934096684292598
 Sr  Cl  S   Cd 
   1   2   2   2
Cartesian
 -0.4541922333314876  1.6834072175298167 16.6559757380194853
  1.6807724202122825  2.9165182227588384 18.3119514760389670
  1.6807724202122825  2.9165182227588384 15.0000000000000000
  1.2678336801646497  0.7387953396812037 21.8560012645819057
  1.2681499057659087  3.2037969362271528 25.0934096684292598
  1.2674653225422055  0.7388650899977077 24.6693511101445786
  1.2685184876429187  3.2037272082167263 22.2799521572414747
