Al S  Al S 
 1.0000000000000000
     3.5910862416321869    0.0000000000000000    0.0000000000000000
    -1.7955431208160935    3.1099680116054458    0.0000000000000000
     0.0000000000000000    0.0000000000000000   42.9863356493607256
 Al  S   Al  S  
   1   2   3   2
Cartesian
 -0.2096488084799472  2.8169959611066133 18.6583526669593560
  1.5859298654797880  1.7804081685542341 15.0000000000000000
 -0.2097411849702820  0.7438177886378554 19.7235705521294094
 -0.2097056205283633  2.8170432557716367 16.0652186722868322
  2.3233825830736241  1.2868039688197199 24.3189874757977975
  2.3233825830736241  1.2868039688197199 26.9171550239178536
  0.5278394622575308  2.3234599726882017 23.2498068503549007
  0.5278394622575308  2.3234599726882017 27.9863356493607327
