Pb Se I  Pt
 1.0000000000000000
     4.0202439424039369    0.0000237985287992    0.0000000000000000
    -2.0101013524980216    3.4816661868710614    0.0000000000000000
     0.0000000000000002    0.0000000000000000  -38.3547565332603995
 Pb  Se  I   Pt 
   1   1   2   2
Cartesian
  2.2329613694705124  1.9564353395729464 -21.8065144865186973
  0.2228462711698595  3.1169828023537001 -23.3547565332603995
 -0.9423681017211851  1.6318038022213235 -19.3964869774338844
  3.0777196582696105  1.6320011061981419 -14.9999999999999964
  1.0675164750180530  0.4712744251481767 -16.4888916939597650
  1.0675640897238210  2.7923574470719119 -17.9084028584398816
