Hg Se Hg I 
 1.0000000000000000
     4.4254744064923468   -0.0000000000000000    0.0000000000000000
    -2.2127372032461734    3.8325732598202333    0.0000000000000000
     0.0000000000000000    0.0000000000000000  -37.4750623537538416
 Hg  Se  Hg  I  
   1   1   1   2
Cartesian
  2.9392793243218391  1.5393148096751603 -22.0810649714786784
  0.7265421210756663  2.8168392296152387 -22.4750623537538452
  0.6156518900389101  0.5435636700813447 -16.7432505159098177
  2.8283890932850837  1.8210880900214224 -15.0000000000000071
  0.6156518900389102  3.0986125099615003 -18.4865010318196354
