Zr I  Bi O 
 1.0000000000000000
     3.9026927233761577    0.0000000000000000    0.0000000000000000
    -1.9513463616880788    3.3798310416084272    0.0000000000000000
     0.0000000000000000    0.0000000000000000   41.0000353230231624
 Zr  I   Bi  O  
   1   2   2   2
Cartesian
 -0.3020043742237262  1.3703901759132593 16.9391452359630961
  1.6493419874643527  2.4970005231160686 18.8782904725522265
  1.6493419874643527  2.4970005231160686 15.0000000000000000
  2.1133323143984941  1.3447041448103656 22.7194700758316159
  2.1133323143984941  1.3447041448103656 25.8720862792743915
  0.1619859527104150  2.4713144920131747 22.5915209302816749
  0.1619859527104150  2.4713144920131747 26.0000353230231624
