Al Te Bi O 
 1.0000000000000000
     4.0458155565364997   -0.0000000000000000    0.0000000000000000
    -2.0229077782682499    3.5037790509868847    0.0000000000000000
     0.0000000000000000    0.0000000000000000   42.5355341311853934
 Al  Te  Bi  O  
   2   2   2   2
Cartesian
  2.2044404366605370  1.3262343750964962 16.2795918494368550
  2.2044404366605370  1.3262343750964962 18.8534102305006535
  0.1815326583922875  2.4941607254254579 14.9999999999999982
  0.1815326583922875  2.4941607254254579 20.1330020799375831
  2.2875123788680192  1.5259416445598435 24.2549688839938540
  2.2875123788680192  1.5259416445598435 27.4075850874366367
  0.2646046005997689  2.6938679948888051 24.1270197384439129
  0.2646046005997689  2.6938679948888051 27.5355341311854005
