Ge S  Si Se
 1.0000000000000000
     3.4758987609606975   -0.0000000000000001    0.0000000000000000
    -1.7377575137093757    3.0108034506697416    0.0000000000000000
     0.0000000000000012    0.0000000000000021   39.6068698230325680
 Ge  S   Si  Se 
   1   2   1   2
Cartesian
  0.6075383543972332 -0.0524556983622959 16.3970091258366857
  2.3455516904679063  0.9511454518609512 17.7940182516731795
  0.6076662655778819  1.9547466020841981 15.0000000000000000
  0.5446614393817782  0.6670666559854427 23.1672447940769253
  2.2831943841203133  1.6698612703029725 21.7276167362170085
  0.5448423345914302  2.6735271254846804 24.6068698230325680
