Zr I  S  Zn
 1.0000000000000000
     3.8758393521151762    0.0000000000000000    0.0000000000000000
    -1.9379196749372574    3.3568311111416742    0.0000000000000000
     0.0000000000000000    0.0000000000000000  -40.9108280762165890
 Zr  I   S   Zn 
   1   2   2   2
Cartesian
 -0.5199560772378538  1.4295820297958892 -16.9391452365891269
  1.4179635991931778  2.5485257335097806 -14.9999999999999982
  1.4179635991931778  2.5485257335097806 -18.8782904725522229
  1.2367750665882626  1.1282872634865684 -25.9108280762165855
  1.2368449795969909  3.3659794911716721 -22.7900854343135109
  1.2366495437647238  1.1283351597824613 -23.3293679872072381
  1.2369705172841832  3.3659317225306675 -25.3713996717372900
