I  Hg In Te In
 1.0000000000000000
     4.4183734478476904   -0.0000000000000011    0.0000000000000000
    -2.2091867226513058    3.8423225329325286    0.0000000000000000
     0.0000000000000036    0.0000000000000000   44.6698508395096283
 I   Hg  In  Te  In 
   2   2   1   2   1
Cartesian
  1.5179050774562783 -0.8810107401627617 15.0000000000000000
  1.5275800599341729  4.2068860093416065 20.9242317454966695
  1.5360941693563308  1.6489946431200220 19.3041194247390777
  1.5147336214166713  1.6730498565346690 16.6206582552528559
  0.8192307664780947  3.5937198785826250 28.2952826489621678
  3.0284240198404491  2.3125448293163253 24.1121188566071112
  0.8191737589326564  1.0318509354473566 29.6698508395096283
  0.8191763949892055  3.5939199238132802 25.4866900647061421
