Sn Se Cl Cd
 1.0000000000000000
     3.9194391411401268    0.0012519794577290    0.0000000000000000
    -1.9586263884670854    3.4013247643257136    0.0000000000000000
     0.0000000000000032    0.0000000000000000   40.2179046175128292
 Sn  Se  Cl  Cd 
   1   1   2   2
Cartesian
  2.6987606800024126  1.5854854269101670 16.5586206887278209
  0.7394055034666758  2.7188430218661619 15.0000000000000000
  1.0176667034972795 -0.2222570955729786 19.7067503726639544
  1.0300022791450958  4.2904682680286772 25.2179046175128292
  1.0302946326567910  2.0230082146529011 23.7987900331883004
  1.0174320772275933  2.0452012627168257 21.1257015565735422
