Zr Cl Ni Se
 1.0000000000000000
     3.4759311890720994    0.0000000000000000    0.0000000000000000
    -1.7379655945360497    3.0102447115430886    0.0000000000000000
     0.0000000000000000    0.0000000000000000   39.6662223618202390
 Zr  Cl  Ni  Se 
   1   2   1   2
Cartesian
 -0.3628266353149655  1.0690244856158091 16.7078992199188079
  1.3751389592210839  2.0724393894635047 18.4157984398376016
  1.3751389592210839  2.0724393894635047 15.0000000000000000
  0.3721430859709814  0.9927928855535900 23.4208814178034288
  2.1101086805070306  1.9962077894012862 24.6662223618202390
  0.3721430859709812  2.9996226932489822 22.1755404743252740
