Cd Cl Pt Te
 1.0000000000000000
     3.9577100403986094   -0.0000000000000000    0.0000000000000000
    -1.9788550201993047    3.4274774357979321    0.0000000000000000
     0.0000000000000000    0.0000000000000000   39.0918474984957882
 Cd  Cl  Pt  Te 
   1   2   1   2
Cartesian
  0.5528696849853764  0.8318211424547837 16.4378714166122748
  2.5317247051846801  1.9743136210540948 17.8757428332245674
  0.5528696849853766  3.1168060996534059 15.0000000000000000
  0.6556441937748184  0.4837302145616806 22.7046332689422776
  2.6344992139741228  1.6262226931609913 24.0918474984957882
  0.6556441937748184  2.7687151717603018 21.3174190403452464
