I  Zn Cd Br
 1.0000000000000000
     4.1268470772862482    0.0000000000000035    0.0000000000000000
    -2.0620375701805038    3.5747538918641881    0.0000000000000000
     0.0000000000000013    0.0000000000000022   42.3895829822563073
 I   Zn  Cd  Br 
   2   2   1   2
Cartesian
  0.4507550656841252  0.7364639997307132 15.0000000000000000
  0.4406287663379452  3.1091297759345706 20.3033500334364945
  2.5030339573070002  1.9150188921998688 18.8373937388954857
  2.5155424687266414  1.9310847108876052 16.4658492361148348
 -0.1381394281799876  0.9382877948972452 25.8229751315403533
  1.9257460999506770  2.1298724255186432 27.3895829822563073
 -0.1372154492049072  3.3214570561400381 24.2563672808244135
