Ca I  Te Zn
 1.0000000000000000
     4.3575132549121651   -0.0000000000000000    0.0000000000000000
    -2.1787566262195863    3.7742427100595117    0.0000000000000000
    -0.0000000000000000    0.0000000000000000   41.5533935200056845
 Ca  I   Te  Zn 
   1   2   2   2
Cartesian
 -0.3289732449335508  1.4616298091091953 24.6043211909733728
  1.8497833829346972  2.7197107124623661 26.5533935200056845
  1.8497833829346972  2.7197107124623661 22.6552488619410362
  1.7205602927115888  1.1019733607610060 14.9999999999999982
  1.7206681576327070  3.6178541974181391 18.7597473661473515
  1.7204251708877183  1.1020604227665456 17.8109584950062683
  1.7208030471236511  3.6177667689470070 15.9491402070049269
