Hf S  Sn S 
 1.0000000000000000
     3.6740688359078559   -0.0000000000000000    0.0000000000000000
    -1.8370344179539280    3.1818369471489230    0.0000000000000000
    -0.0000000000000000    0.0000000000000000   39.2585352635142826
 Hf  S   Sn  S  
   1   2   1   2
Cartesian
  0.4975708755807017  0.6627749183370997 16.4481043019908562
  2.3346052935346293  1.7233872340534073 17.8962086039820498
  0.4975708755807017  2.7839995497697148 15.0000000000000000
  0.5359908500894485  0.6779486309545494 22.7809638607298588
  2.3730252680433765  1.7385609466708569 24.2585352635142826
  0.5359908500894485  2.7991732623871646 21.3033924579454350
