Ga Se Zr S 
 1.0000000000000000
     3.7533537902548391   -0.0000000000000000    0.0000000000000000
    -1.8766768951274195    3.2504997317513000    0.0000000000000000
    -0.0000000000000000    0.0000000000000000   41.7020053296754583
 Ga  Se  Zr  S  
   2   2   1   2
Cartesian
  2.0688616904965924  1.4671277329688239 16.1770728543176219
  2.0688616904965924  1.4671277329688239 18.6526280641098090
  0.1921847953691730  2.5506276435525903 14.9999999999999964
  0.1921847953691730  2.5506276435525903 19.8297009184262016
 -0.0443080447961428  0.7033698182243354 25.2561228869313936
  1.8323688503312767  1.7868697288081017 26.7020053296754583
 -0.0443080447961430  2.8703696393918681 23.8102404441872721
