Al Se Hf Se
 1.0000000000000000
     3.7751605336332936   -0.0000000000000000    0.0000000000000000
    -1.8875802668166468    3.2693849254908498    0.0000000000000000
     0.0000000000000000    0.0000000000000000   42.0623191073462550
 Al  Se  Hf  Se 
   2   2   1   2
Cartesian
  2.0603955766611430  1.4462271081360787 16.1674793328362689
  2.0603955766611430  1.4462271081360787 18.7553318157724647
  0.1728153098444964  2.5360220832996956 15.0000000000000000
  0.1728153098444964  2.5360220832996956 19.9228111486087727
  0.0542910425805072  0.6546934409553750 25.4864300865667488
  1.9418713093971538  1.7444884161189913 27.0623191073462550
  0.0542910425805070  2.8342833912826078 23.9105410657895732
