Hg F  Pt Se
 1.0000000000000000
     3.7036985606731685   -0.0000000000000000    0.0000000000000000
    -1.8518492803365820    3.2074970415028226    0.0000000000000000
     0.0000000000000002    0.0000000000000000   38.1112758472124469
 Hg  F   Pt  Se 
   1   2   1   2
Cartesian
  0.4833679821131322  0.7286763344461571 16.0286721523601869
  2.3352172624497065  1.7978420149470975 17.0573443047204023
  0.4833679821131307  2.8670076954480379 15.0000000000000000
  0.5704832622145561  0.7026895470813040 21.8014671254047023
  2.4223325425511408  1.7718552275822450 23.1112758472124469
  0.5704832622145575  2.8410209080831859 20.4916583975073152
