Ti I  Zr Te
 1.0000000000000000
     3.8457229636929711    0.0000000000000000    0.0000000000000000
    -1.9228614818464855    3.3304937824752932    0.0000000000000000
     0.0000000000000000    0.0000000000000000   41.3493831533393177
 Ti  I   Zr  Te 
   1   2   1   2
Cartesian
  0.1465816538256035  1.4496518070420894 16.8143657812576173
  2.0694431356720888  2.5598164012005205 18.6287315661405408
  2.0694431356720888  2.5598164012005205 15.0000000000000000
  0.2731970656995552  1.4676073098013189 24.4878185912649293
  2.1960585475460408  2.5777719039597500 26.3493831533393177
  2.1960585475460408  2.5777719039597500 22.6262540291907186
