Pb O  Al S 
 1.0000000000000000
     3.5884595478545553   -0.0000000000000000    0.0000000000000000
    -1.7942297739272777    3.1076971288948649    0.0000000000000000
     0.0000000000000000    0.0000000000000000  -39.1548609162251608
 Pb  O   Al  S  
   1   1   2   2
Cartesian
  1.9268603607212071  1.5437757583292042 -23.2120205142541494
  0.1326305867939300  2.5796748012941597 -24.1548609162251608
  1.9278136744051877  1.3461461737625628 -18.6673481735629352
  1.9278136744051877  1.3461461737625628 -16.0691806254428791
  0.1335839004779102  2.3820452167275179 -19.7365287990058356
  0.1335839004779102  2.3820452167275179 -15.0000000000000000
