S  Ti Zr Se
 1.0000000000000000
     3.8563776305090061   -0.0000000000000000    0.0000000000000000
    -1.9281888141355150    3.3405667183143626    0.0000000000000000
    -0.0000000000000000    0.0000000000000000  -40.1907911933237045
 S   Ti  Zr  Se 
   2   2   1   2
Cartesian
  1.4093656633234133  1.1165938764423875 -18.2247483793411575
  1.4095734829913629  3.3430512383974378 -14.9999999999999947
  1.4092982115492769  1.1166014729949150 -15.7433016336355447
  1.4096409617202126  3.3430436453301118 -17.4814054606599356
  0.6935410824355193  0.2435462051121958 -23.6101858881915589
  2.6217298980630179  1.3570684445503165 -22.0295805830595306
  0.6935410831815112  2.4705906839884371 -25.1907911933237081
