Ga S  Hg F 
 1.0000000000000000
     3.6522322242453074   -0.0000000000000000    0.0000000000000000
    -1.8261161121226515    3.1629258867165784    0.0000000000000000
     0.0000000000000001    0.0000000000000000   34.6667737319715030
 Ga  S   Hg  F  
   2   2   1   2
Cartesian
  1.9829671131892030  1.4638050261390767 16.0940275853641523
  1.9829671131892030  1.4638050261390767 18.5727461466075070
  0.1568510010665505  2.5181136550446026 15.0000000000000018
  0.1568510010665505  2.5181136550446026 19.6667737319715030
 -0.4176922071061738  1.2047825431904726 16.7863492974149722
  1.4084239050164709  2.2590911720959985 17.8150214497751875
 -0.4176922071061752  3.3133998010015242 15.7576771450547870
