Pb Te Hg I 
 1.0000000000000000
     4.3555028629281756    0.0000000000000000    0.0000000000000000
    -2.1777514314640882    3.7719761255516433    0.0000000000000000
     0.0000000000000000    0.0000000000000000   38.6432205813917591
 Pb  Te  Hg  I  
   1   1   1   2
Cartesian
  2.3478873246743279  1.2738457335903419 16.6845068820464775
  0.1701358932102398  2.5311711087742230 15.0000000000000036
  0.8848637853588759  0.1025289855317933 21.8999700654819485
  3.0626152168229641  1.3598543607156748 23.6432205813917591
  0.8848637853588757  2.6171797358995557 20.1567195495721307
