Ge Te Pb Se
 1.0000000000000000
     4.0106181787907751    0.0000000000000000    0.0000000000000000
    -2.0053090893953875    3.4732972277124787    0.0000000000000000
     0.0000000000000000    0.0000000000000000   36.5259793140957640
 Ge  Te  Pb  Se 
   1   1   1   1
Cartesian
  2.1718173722559286  1.3333376515787272 16.5598212339094246
  0.1665082828605416  2.4911033941495528 15.0000000000000000
  2.4541977816173004  1.3378735125015329 21.5259793140957640
  0.4488886922219130  2.4956392550723585 19.9777372673540654
