Pb Te I  Zn
 1.0000000000000000
     4.2577574787460746    0.0000000000000035    0.0000000000000000
    -2.1274927709104166    3.6881256251480092    0.0000000000000000
     0.0000000000000012    0.0000000000000022   40.6573458211320187
 Pb  Te  I   Zn 
   1   1   2   2
Cartesian
  1.8986574749068938  1.5733932266825916 16.6845068820464775
 -0.2297592749786037  2.8027684350652602 15.0000000000000000
  0.5576964164389604  0.7128598340533979 20.3539957876955206
  0.5472197132041179  3.1607736524130075 25.6573458211320187
  2.6750624873729301  1.9287920719206386 24.1913895265910099
  2.6879675918321464  1.9453674109184018 21.8198450238103554
