Pb Br Te Zn
 1.0000000000000000
     4.3186123344453247   -0.0000000000000000    0.0000000000000000
    -2.1593061659861661    3.7405535247046298    0.0000000000000000
    -0.0000000000000000    0.0000000000000000   40.9769630610883198
 Pb  Br  Te  Zn 
   1   2   2   2
Cartesian
 -0.5132411953609672  1.6453287551979825 16.8414801415537809
  1.6460649722738605  2.8921799300995259 18.6829602831084429
  1.6460649722738605  2.8921799300995259 15.0000000000000000
  1.5767231445752086  1.0189803541392448 22.2172156949409647
  1.5768300465588880  3.5124042418537380 25.9769630610883198
  1.5765892290272614  1.0190666390225196 25.0281741899472365
  1.5769637318480192  3.5123175937759710 23.1663559019458916
