Hf Se Mg Cl
 1.0000000000000000
     3.7227628139530764    0.0000000000000000    0.0000000000000000
    -1.8613814069765384    3.2240071691474057    0.0000000000000000
     0.0000000000000000    0.0000000000000000   39.3270077659455666
 Hf  Se  Mg  Cl 
   1   2   1   2
Cartesian
  0.5351543783193343  0.7989404368053898 16.5758890207771721
  2.3965357852958720  1.8736094931878584 18.1517780415566747
  0.5351543783193340  2.9482785495703268 14.9999999999999964
  0.4693150413928168  0.4469629120721688 22.9541019012014296
  2.3306964483693551  1.5216319684546376 24.3270077659455666
  0.4693150413928173  2.5963010248371061 21.5811960364572997
