Hf I  S  Ti
 1.0000000000000000
     3.8455362444070218   -0.0000000000000000    0.0000000000000000
    -1.9227681210845229    3.3311778025378089    0.0000000000000000
     0.0000000000000000    0.0000000000000000   40.8106175825789990
 Hf  I   S   Ti 
   1   2   2   2
Cartesian
 -0.3760016802550444  1.2188753643577055 16.9476853944779791
  1.5467664423214622  2.3292679652036417 18.8953707810581477
  1.5467664423214622  2.3292679652036417 15.0000000000000000
  1.3545397547570694  0.7974651246735105 22.5858692032378450
  1.3547469901862879  3.0176648595807665 25.8106175825790061
  1.3544724926092606  0.7974726998753514 25.0673159489434560
  1.3548142792130331  3.0176572878543313 23.3292121219190633
