Sn O  Al N 
 1.0000000000000000
     3.1770492326304871    0.0000000000000000    0.0000000000000000
    -1.5885246163152436    2.7514053445318583    0.0000000000000000
     0.0000000000000000    0.0000000000000000   36.0063226281636730
 Sn  O   Al  N  
   1   2   1   1
Cartesian
  0.4988007410400120  0.3647295963136623 19.9973603034912664
  2.0873253573552559  1.2818647111576149 21.0063226281636801
  0.4988007410400120  2.1989998260015673 18.9883979788188526
  0.7606709009708439  2.0578387543211778 15.0000000000000036
  2.3491955172860877  1.1407036394772252 15.0000000000000018
