I  Cd Ge F 
 1.0000000000000000
     4.3256120962800297    0.0008383076656587    0.0000000000000000
    -2.1620740684230664    3.7533450346502635    0.0000000000000000
     0.0000000000000046    0.0000000000000022   42.2421440901899174
 I   Cd  Ge  F  
   2   2   2   2
Cartesian
  1.2646454105596576 -0.2634117690331364 14.9999999999999982
  1.2760956604103231  4.7099767884241954 20.9102076548876994
  1.2812235609901879  2.2101204788808180 19.2986420562647361
  1.2625660378323280  2.2342779895222860 16.6116177631989359
  1.2836510460175414  0.9269930731208696 24.8681574681246396
  1.2841390362736662  3.4295025321103294 25.4612373534021614
  1.2836510460175410  0.9269930731208691 23.0872507625459278
  1.2841390362736667  3.4295025321103303 27.2421440901899174
