Ba Cl I  Ag
 1.0000000000000000
     4.5542256246794164    0.0000000000000000    0.0000000000000000
    -2.2771128110330530    3.9465052912033336    0.0000000000000000
     0.0000000000000000    0.0000000000000000   40.7388222807720126
 Ba  Cl  I   Ag 
   1   2   2   2
Cartesian
 -0.2258995558395643  1.7776655775712424 16.6919307837616309
  2.0512132569356951  3.0931673413056866 18.3838615675232617
  2.0512132569356951  3.0931673413056866 15.0000000000000000
  1.2860427462115136  0.8301296802576001 21.5921030851374169
  1.2857827306799807  3.4597518047391751 25.7388222807720126
  1.2843135460332462  0.8311067584628903 24.4942375557335197
  1.2875272146689838  3.4587679725840279 22.8357120962535909
