Mo Te Ti Br
 1.0000000000000000
     3.5097180825609318    0.0000000000000000    0.0000000000000000
    -1.7548590412804659    3.0395050196193765    0.0000000000000000
     0.0000000000000000    0.0000000000000000   35.3040700772132254
 Mo  Te  Ti  Br 
   1   2   1   2
Cartesian
  0.2957422988095180  1.2795097284124877 16.8050999999999995
  2.0506013400899836  2.2926780682856132 18.6101999999999990
  2.0506013400899836  2.2926780682856132 15.0000000000000000
  0.3577656740500205  1.4721299762284477 18.6102166182330606
  2.1126247153304862  2.4852983161015731 20.3040700772132254
  2.1126247153304862  2.4852983161015731 16.9163631599052202
