Ga Se Ga S  Zn
 1.0000000000000000
     3.8789218835812309    0.0000000000000000    0.0000000000000000
    -1.9394609433034045    3.3595141024758890    0.0000000000000000
     0.0000000000000000    0.0000000000000000   41.8986989583058431
 Ga  Se  Ga  S   Zn 
   1   2   1   2   2
Cartesian
  0.7401266424938644  2.8843987617986016 18.6412241834118753
  2.6796467330750615  1.7645266125112580 14.9999999999999964
  0.7399453402353553  0.6448366207403111 19.8126831402394110
  0.7400044879654999  2.8844785734554388 16.1714585946549150
  1.1882902725742281  0.3723076262730217 23.7779563164027685
  1.1883602394302968  2.6117883588476305 26.8986989583058431
  1.1881646499198748  0.3723555608506578 26.3594164054121158
  1.1884858769601248  2.6117405520269124 24.3173847208820675
