Pb Se S  Zn
 1.0000000000000000
     4.0001998597293760    0.0000000000000000    0.0000000000000000
    -2.0000999287443575    3.4645304699630914    0.0000000000000000
    -0.0000000000000000    0.0000000000000000   38.3705137028782630
 Pb  Se  S   Zn 
   1   1   2   2
Cartesian
  2.3171695879560481  1.9250111059464181 16.5482420467417022
  0.3170696584648036  3.0798545959341150 15.0000000000000000
  1.4895659716865366  0.6529574078390238 20.2497710609751884
  1.4896381279059834  2.9624429459952610 23.3705137028782630
  1.4894364213271181  0.6530068408224017 22.8312311499845357
  1.4897676936059718  2.9623936447624057 20.7891994654544838
