Ge Se Ru Cl
 1.0000000000000000
     3.6296925041492996    0.0000000000000000    0.0000000000000000
    -1.8148462520746500    3.1434059165192467    0.0000000000000000
    -0.0000000000000000    0.0000000000000000   37.5056373388901179
 Ge  Se  Ru  Cl 
   1   1   1   2
Cartesian
  2.0390394011042670  1.4373041311122112 16.4473597337136113
  0.2241931490296176  2.4851061032852932 15.0000000000000000
  0.6392481560784934  0.3707189235245045 21.2782611892745237
  2.4540944081531446  1.4185208956975865 22.5056373388901179
  0.6392481560784947  2.4663228678706681 20.0508850501774880
