Pt Se Zr Se
 1.0000000000000000
     3.7715490415576838    0.0000000000000000    0.0000000000000000
    -1.8857745207788419    3.2662572816078059    0.0000000000000000
    -0.0000000000000000    0.0000000000000000   39.1945315837362926
 Pt  Se  Zr  Se 
   1   2   1   2
Cartesian
  0.5081292823251249  0.7457088765508321 16.3098087278973836
  2.3939038031039668  1.8344613037534341 17.6196174497051317
  0.5081292823251247  2.9232137309560362 15.0000000000000000
  0.6578429078854391  0.8088450590224988 22.6139262786042643
  2.5436174286642808  1.8975974862251004 24.1945315837362926
  0.6578429078854391  2.9863499134277021 21.0333209734721152
