Hf Cl Ti Cl
 1.0000000000000000
     3.3142037054516242    0.0000000000000000    0.0000000000000000
    -1.6571018527258121    2.8701846022376256    0.0000000000000000
     0.0000000000000000    0.0000000000000000   40.6284649271642380
 Hf  Cl  Ti  Cl 
   1   2   1   2
Cartesian
  0.1630063020878952  1.2656659938583710 16.7299570918342582
  1.8201081548137075  2.2223941946042460 18.4599141836685092
  1.8201081548137075  2.2223941946042460 15.0000000000000000
  0.3047982202670307  1.3551503375878204 24.0426052364110276
  1.9619000729928424  2.3118785383336955 25.6284649271642380
  1.9619000729928424  2.3118785383336955 22.4567457999968703
