Cr Te Zr Br
 1.0000000000000000
     3.5162286193307422   -0.0000000000000000    0.0000000000000000
    -1.7581143096653711    3.0451433098543053    0.0000000000000000
     0.0000000000000000    0.0000000000000000   41.0568349240420787
 Cr  Te  Zr  Br 
   1   2   1   2
Cartesian
  0.2090244682371523  1.1621983510042555 16.7062363127964808
  1.9671387779025231  2.1772461209556906 18.4124726255929652
  1.9671387779025231  2.1772461209556906 15.0000000000000000
  0.2977927478570054  1.3874526842432913 24.2306425015556393
  2.0559070575223766  2.4025004541947266 26.0568349240420787
  2.0559070575223766  2.4025004541947266 22.4044500710148320
