Ga S  Ti Te
 1.0000000000000000
     3.6267604176530344    0.0000000000000000    0.0000000000000000
    -1.8133802088265172    3.1408666551273883    0.0000000000000000
     0.0000000000000000    0.0000000000000000   44.4733871373675598
 Ga  S   Ti  Te 
   2   2   2   2
Cartesian
  1.9499352270362409  1.3604233318449990 16.0940275853641523
  1.9499352270362409  1.3604233318449990 18.5727461466075070
  0.1365550182097240  2.4073788835541281 15.0000000000000000
  0.1365550182097240  2.4073788835541281 19.6667737319714995
  2.1119453423993955  1.3992278275801904 25.3791092349128959
  2.1119453423993955  1.3992278275801904 27.7582256136621481
  0.2985651335728782  2.4461833792893195 23.6639506998552918
  0.2985651335728782  2.4461833792893195 29.4733871373675598
