Zr Se Si Se
 1.0000000000000000
     3.5519872336968303   -0.0000000000000001    0.0000000000000000
    -1.7758017500774419    3.0766980009943921    0.0000000000000000
     0.0000000000000013    0.0000000000000023   42.8419549989030273
 Zr  Se  Si  Se 
   2   2   1   2
Cartesian
  2.0409047444977815  1.3703379107859217 23.4831066614704014
  2.0409047444977819  1.3703379107859217 26.2293491701539843
  0.2649750832396911  2.3959039111173857 21.8705005752718051
  0.2649750832396913  2.3959039111173861 27.8419549989030273
  0.1578639153106092  0.5734170690202262 16.4396280578599168
  1.9344524719328480  1.5981588815727437 15.0000000000000000
  0.1580459713914861  2.6237910029976672 17.8792530868155595
