S  Hf Hg Cl
 1.0000000000000000
     4.0709889337509502    0.0000000000000000    0.0000000000000000
    -2.0354944656907783    3.5261124649450180    0.0000000000000000
    -0.0000000000000000    0.0000000000000000   40.1774132555387098
 S   Hf  Hg  Cl 
   2   2   1   2
Cartesian
  1.2515139351999311  0.6801460850647280 15.0000000000000000
  1.2518320992330507  3.0303820956416057 18.3254866465823731
  1.2516385821788087  0.6800239641645575 17.6045811352982859
  1.2517074424987182  3.0305042216433860 15.7209963454440533
  0.8233735995384097  0.0923083654523771 23.7178089669543652
  2.8588680668087867  1.2676791871007169 25.1774132555387098
  0.8233736003282084  2.4430500087490570 22.2582046783700420
