Br Hg Cd I 
 1.0000000000000000
     4.2518266685008879    0.0010674728082233    0.0000000000000000
    -2.1249812562856145    3.6886876578064038    0.0000000000000000
     0.0000000000000035    0.0000000000000000   42.7809961986863883
 Br  Hg  Cd  I  
   2   2   1   2
Cartesian
  1.2064106890269453 -0.3950392740694336 15.0000000000000000
  1.2171866943410972  4.5011550611210485 20.7696522731609825
  1.2217775168801863  2.0390829697287911 19.2178916173209409
  1.2023851973950093  2.0667085201186732 16.5512692941072110
  0.7130593393337505  0.3085842711028475 26.0604797769084833
  2.8392833662391372  1.5388584722437979 27.7809961986863883
  0.7136807246436367  2.7680652005765247 24.3399633551305676
