Ti Br Pb O 
 1.0000000000000000
     3.5324788686160229   -0.0000000000000000    0.0000000000000000
    -1.7662394343080114    3.0592164385531881    0.0000000000000000
    -0.0000000000000000    0.0000000000000000   38.2731942954446183
 Ti  Br  Pb  O  
   1   2   1   1
Cartesian
 -0.1147105878260083  1.2624122256251638 21.5793408364644499
  1.6515288464820030  2.2821510384762265 23.2731942954446183
  1.6515288464820030  2.2821510384762265 19.8854873781366130
  2.0562309534068008  1.7397301315870282 15.9428404019710133
  0.2899915190987900  2.7594689444380909 15.0000000000000000
