Hf Se Mo Te
 1.0000000000000000
     3.6121100536299475    0.0000000000000000    0.0000000000000000
    -1.8060550268149738    3.1281790677087056    0.0000000000000000
     0.0000000000000000    0.0000000000000000   40.9798875426013893
 Hf  Se  Mo  Te 
   1   2   1   2
Cartesian
  0.3146182469754795  1.4324942436924843 16.6825459715619715
  2.1206732737904530  2.4752205995953860 18.3650919482088675
  2.1206732737904530  2.4752205995953860 14.9999999999999982
  0.3777390866031510  1.4851727185295429 24.1747875426013863
  2.1837941134181245  2.5278990744324448 25.9798875426013893
  2.1837941134181245  2.5278990744324448 22.3696875426013904
