Se Zn Bi O 
 1.0000000000000000
     4.0258190414676926    0.0000000000000000    0.0000000000000000
    -2.0129095195699040    3.4866248361480832    0.0000000000000000
     0.0000000000000000    0.0000000000000000   40.7978014576597730
 Se  Zn  Bi  O  
   2   2   2   2
Cartesian
  0.4681070950196897  0.7620778072141006 14.9999999999999982
  0.4682111080064830  3.0863626056168316 18.4133035906909797
  0.4680077572340930  0.7621320268227141 17.6556971816099164
  0.4683104167485632  3.0863083840489089 15.7579816020882362
  2.2299151228901057  1.5722665176573258 22.5172362104682264
  2.2299151228901057  1.5722665176573258 25.6698524139110091
  0.2170056025442402  2.7344747963733536 22.3892870649182925
  0.2170056025442402  2.7344747963733536 25.7978014576597730
