Hg Se Pb Br
 1.0000000000000000
     4.4754635175385857   -0.0000000000000000    0.0000000000000000
    -2.2377317587692929    3.8758650998988768    0.0000000000000000
     0.0000000000000000    0.0000000000000000   37.3047375845624529
 Hg  Se  Pb  Br 
   1   1   1   2
Cartesian
  3.0420742780011665  1.4663236709257554 15.3939973822751668
  0.8043425192318742  2.7582787042253814 15.0000000000000000
  0.5761713497036351  0.5486853792754099 20.6404659169228175
  2.8139031084729274  1.8406404125750351 22.3047375845624529
  0.5761713497036350  3.1325954458746601 18.9761942492831963
