Ti I  Ga Se
 1.0000000000000000
     3.7966797689243776   -0.0000000000000000    0.0000000000000000
    -1.8983398844621888    3.2880211299229432    0.0000000000000000
     0.0000000000000000    0.0000000000000000   42.2644643185082671
 Ti  I   Ga  Se 
   1   2   2   2
Cartesian
 -0.5079465919638381  1.4873070808048379 16.8143657812576208
  1.3903932924983506  2.5833141241124862 18.6287315661405444
  1.3903932924983506  2.5833141241124862 15.0000000000000036
  2.0615637885402394  1.4157393209195384 23.6118362543996838
  2.0615637885402394  1.4157393209195384 26.0873914641918674
  0.1632239040780506  2.5117463642271858 22.4347634000820548
  0.1632239040780506  2.5117463642271858 27.2644643185082600
