I  Cd I  In
 1.0000000000000000
     4.4398055066318705    0.0008383076656587    0.0000000000000000
    -2.2191707723198295    3.8537035071180412    0.0000000000000000
     0.0000000000000035    0.0000000000000000   44.4171814675734780
 I   Cd  I   In 
   2   2   2   2
Cartesian
  1.2416453569489567 -0.2947403566093990 15.0000000000000000
  1.2533722855865250  4.8116137921086697 20.9102076548876994
  1.2586484275114680  2.2449227382302737 19.2986420562647396
  1.2394982332298448  2.2697262068267992 16.6116177631989359
  1.2606620722311084  0.8952839578677293 23.0647168946938450
  1.2612101347802129  3.4641391664937555 29.4171814675734780
  1.2599342101696978  0.8957229642036237 27.5585070681071436
  1.2619381307216737  3.4637006159809953 24.9241998958940734
