Se Hf Se Zr
 1.0000000000000000
     4.2955540142900759   -0.0000000000000000    0.0000000000000000
    -2.1477770046913491    3.7213696764198074    0.0000000000000000
    -0.0000000000000000    0.0000000000000000   40.4672031163405350
 Se  Hf  Se  Zr 
   2   2   2   2
Cartesian
  1.5278132561706652  1.0233785366379171 14.9999999999999964
  1.5280792268213244  3.5037154755655018 18.6912765295358625
  1.5278749742402975  1.0233107236655912 17.7686483511876077
  1.5280175844257817  3.5037833413559558 15.9230671053787312
  1.2906761632057142  1.0077137878165787 21.8077760153822204
  1.2909546156206853  3.4881162483013184 25.4672031163405421
  1.2906740433655945  1.0076769590460573 24.5816720397922168
  1.2909567485038160  3.4881530544986181 22.6935267710680044
