Hf S  Pd S 
 1.0000000000000000
     3.6027881638623569   -0.0000000000000000    0.0000000000000000
    -1.8013940819311784    3.1201060743586932    0.0000000000000000
    -0.0000000000000000    0.0000000000000000   38.6967814380406381
 Hf  S   Pd  S  
   1   2   1   2
Cartesian
  0.6697129399673281  0.8395152150274099 16.4481043019908562
  2.4711070218985061  1.8795505731469744 17.8962086039820498
  0.6697129399673281  2.9195859312665391 14.9999999999999982
  0.6111500960285134  1.0586903380174149 22.4517096046361075
  2.4125441779596914  2.0987256961369796 23.6967814380406381
  0.6111500960285134  3.1387610542565443 21.2066377712315770
