Pb S  Hg Cl
 1.0000000000000000
     3.9715541718405056   -0.0000000000000000    0.0000000000000000
    -1.9857770859202528    3.4394668053199453    0.0000000000000000
    -0.0000000000000000    0.0000000000000000   37.8350130186250055
 Pb  S   Hg  Cl 
   1   1   1   2
Cartesian
  2.2064256439988768  1.0966959400622720 16.4391638847389459
  0.2206485580786241  2.2431848751689207 15.0000000000000018
  0.8493261125018086  0.2439861412572363 21.3754087300406610
  2.8351031984220638  1.3904750763638851 22.8350130186250055
  0.8493261125018092  2.5369640114705345 19.9158044414563378
