Ga O  Al N 
 1.0000000000000000
     3.1337466627877806    0.0000000000000000    0.0000000000000000
    -1.5668733313938903    2.7139042189989246    0.0000000000000000
     0.0000000000000000    0.0000000000000000   37.9319489947947659
 Ga  O   Al  N  
   2   2   1   1
Cartesian
  2.1562993461299094  0.6804265773674578 19.6694893512840210
  2.1562993461299094  0.6804265773674578 22.1827750673427389
  0.5894260147360194  1.5850613170337657 18.9203154238319655
  0.5894260147360194  1.5850613170337657 22.9319489947947659
  0.4475906357560018  2.3672990790910688 15.0000000000000018
  2.0144639671498923  1.4626643394247603 15.0000000000000000
