In S  In S  Ti
 1.0000000000000000
     3.9187036180698991   -0.0000000000000000    0.0000000000000000
    -1.9593518079159611    3.3945426068580487    0.0000000000000000
     0.0000000000000000    0.0000000000000000   42.3364671897608247
 In  S   In  S   Ti 
   1   2   1   2   2
Cartesian
  0.7283982635182484  2.9825556235381381 18.9926140749650472
  2.6877597710235639  1.8507160535661200 15.0000000000000000
  0.7281864156657800  0.7193713911714588 20.1674250803514425
  0.7281961097285182  2.9827668271519592 16.1748100312234691
  1.2582229645293392  0.3114392356929827 24.1117188104196671
  1.2584341429242598  2.5738710368823416 27.3364671897608247
  1.2581544226134069  0.3114469549883578 26.5931655561252782
  1.2585027122305423  2.5738633211284809 24.8550617291008820
