Pb S  Ti
 1.0000000000000000
     3.9335153494321862   -0.0000000000000000    0.0000000000000000
    -1.9667576735971046    3.4073699424918198    0.0000000000000000
     0.0000000000000000    0.0000000000000000   38.3710646873540924
 Pb  S   Ti 
   1   3   2
Cartesian
  2.2682813712229515  1.8966591853545394 16.4391638847389423
  0.3015236968798548  3.0324491661851463 15.0000000000000000
  1.4603001098030708  0.6283976624605327 20.1463163080129313
  1.4605120863973231  2.8993787662875259 23.3710646873540924
  1.4602313088156333  0.6284054109256677 22.6277630537185424
  1.4605809148786397  2.8993710213772874 20.8896592266941497
