Br Cd S  Hf
 1.0000000000000000
     4.1261054093280691    0.0014024937248978    0.0000000000000000
    -2.0618280979775063    3.5796625533003348    0.0000000000000000
    -0.0000000000000033   -0.0000000000000000  -42.1707784187095669
 Br  Cd  S   Hf 
   2   2   2   2
Cartesian
  1.5048508776524090 -0.0690843113241341 -20.7228492099077997
  1.5182090207145331  4.6800833571504175 -14.9999999999999982
  1.5180294395470280  2.2938193062449352 -16.5217900061855048
  1.5046145075374562  2.3175161147525243 -19.2013233282757056
  1.3456591903862283  1.0296742600096165 -27.1707784187095598
  1.3467978900447617  3.4160701575487460 -23.8452917721271866
  1.3457854825287219  1.0295503031488908 -24.5661972834112774
  1.3466715880165077  3.4161941195862120 -26.4497820732655065
