Cl Cd Ga Se Ga
 1.0000000000000000
     3.8836476498538066    0.0012519794577290    0.0000000000000000
    -1.9407306454570448    3.3703418644090779    0.0000000000000000
     0.0000000000000035    0.0000000000000000   43.8707094988011193
 Cl  Cd  Ga  Se  Ga 
   2   2   1   2   1
Cartesian
  1.3063535001909321 -0.9258409687304648 14.9999999999999964
  1.3185896686346912  3.5457852665567224 20.5111542448488677
  1.3188727005390706  1.2989758642579550 19.0920396605243425
  1.3061276683705405  1.3209667540880834 16.4189511839095843
  0.6306867252702690  3.1511711060261844 27.6992505419735835
  2.5722053662873705  2.0281069320276699 24.0580263585617047
  0.6297764518764483  0.9039734604258493 28.8707094988011193
  0.6305644478892539  3.1512511503615275 25.2294849532166268
