Tl S  Hg Cl
 1.0000000000000000
     4.0257239495971664   -0.0000000000000000    0.0000000000000000
    -2.0128619747985836    3.4863792089745709    0.0000000000000000
     0.0000000000000000    0.0000000000000000   42.1937778743273739
 Tl  S   Hg  Cl 
   2   2   1   2
Cartesian
  2.2208073975149785  1.5174498585111604 16.1978423164646763
  2.2208073975149785  1.5174498585111604 19.0837598082548148
  0.2079454227163948  2.6795762615026835 15.0000000000000000
  0.2079454227163947  2.6795762615026835 20.2816021247199672
  0.0936339194053856  0.5499647538523560 25.7341735857430223
  2.1064958942039711  1.7120911568438799 27.1937778743273668
  0.0936339194053860  2.8742175598354045 24.2745692971586990
