Cl Ag Ge I 
 1.0000000000000000
     4.3503606698899011    0.0000000000000000    0.0000000000000000
    -2.1751803336881945    3.7755935064543351    0.0000000000000000
    -0.0000000000000000    0.0000000000000000   40.6802006328807551
 Cl  Ag  Ge  I  
   2   2   1   2
Cartesian
  1.3086010669448664  0.7560867207412401 15.0000000000000000
  1.3041406362198611  3.2679617678476616 18.2868565417185991
  1.3040818763016808  0.7582251187266855 17.9775021923323379
  1.3086952389687818  3.2658048220368783 15.3080484603362663
  0.7876053170950277  0.0522916725771072 23.9354247388995098
  2.9627856524588969  1.3108228413952183 25.6802006328807551
  0.7876053179328650  2.5693540102133294 22.1906488449182611
