Ti I  Zr Se
 1.0000000000000000
     3.7818808216326518    0.0000000000000000    0.0000000000000000
    -1.8909404108163259    3.2752048656190418    0.0000000000000000
    -0.0000000000000000    0.0000000000000000   40.6467888008046714
 Ti  I   Zr  Se 
   1   2   1   2
Cartesian
 -0.4082810369734367  1.3398282795043319 16.8143657812576208
  1.4826593738428888  2.4315632347106790 18.6287315661405444
  1.4826593738428888  2.4315632347106790 15.0000000000000018
  0.5838833161773388  0.8069166024824976 24.0661834956726395
  2.4748237269936642  1.8986515576888447 25.6467888008046714
  0.5838833161773388  2.9903865128951921 22.4855781905404939
