Se Hf In Te In
 1.0000000000000000
     4.3234073456127451   -0.0000000000000000    0.0000000000000000
    -2.1617036715880795    3.7448844663226479    0.0000000000000000
     0.0000000000000000    0.0000000000000000   42.7789363282497632
 Se  Hf  In  Te  In 
   2   2   1   2   1
Cartesian
  1.2273940701378387  0.1800007472335599 15.0000000000000000
  1.2276617645675714  2.6760105719743184 18.6912765295358660
  1.2274561884012376  0.1799325057609945 17.7686483511876112
  1.2275997224689501  2.6760788665987625 15.9230671053787347
  0.8014969865842596  3.1944381234653094 26.4043681377023063
  2.9632070484979294  1.9457525955026909 22.2212043453472461
  0.8014412043457546  0.6975360212413575 27.7789363282497632
  0.8014437837264127  3.1946330957172271 23.5957755534462805
