Mo S  Ir
 1.0000000000000000
     3.2316868425299909    0.0000000000000000    0.0000000000000000
    -1.6158434203283993    2.7990412643819909    0.0000000000000000
    -0.0000000000000000    0.0000000000000000   41.4530308740204703
 Mo  S   Ir 
   1   4   2
Cartesian
 -0.4698301061537011  1.2864798454854340 16.5635563231757601
  1.1460133154234935  2.2194936002794310 18.1271126463515202
  1.1460133154234935  2.2194936002794310 14.9999999999999964
  0.9995762895912141  0.6483269846200707 21.8027370960003211
  0.9994303371104849  2.5144955448593285 26.4530308740204703
  0.9993886147187561  0.6486703990133064 25.2003625635459301
  0.9996182537673856  2.5141518688146389 23.0554215550146466
