Se Ir Si S 
 1.0000000000000000
     3.3564623133302147   -0.0000000000000001    0.0000000000000000
    -1.6780504149338951    2.9119924790557183    0.0000000000000000
     0.0000000000000012    0.0000000000000022   40.9517909780637339
 Se  Ir  Si  S  
   2   2   1   2
Cartesian
  0.1516420566772229  0.9753333519783551 21.1770472414168189
  0.1515118178365927  2.9158553432991074 25.9517909780637339
  0.1513236522949944  0.9776388226257740 24.5673007722870800
  0.1518303228689580  2.9135479235769801 22.5615683238702367
  2.8593594299106329  0.8078500513261903 16.3262219077730180
  1.1815224216784126  1.7787818246073928 15.0000000000000000
 -0.4970500807745481  2.7498283424418450 17.6519019534943382
