Pb Se Cd Br
 1.0000000000000000
     4.0699292951428596    0.0000000000000000    0.0000000000000000
    -2.0349646475714298    3.5246621612002018    0.0000000000000000
    -0.0000000000000000    0.0000000000000000   38.1817213688350989
 Pb  Se  Cd  Br 
   1   1   1   2
Cartesian
  2.2463958420192838  1.3850859648679652 16.5482420467416986
  0.2114311944478541  2.5599733519346985 15.0000000000000000
  0.6523397512610301  0.1331190649291666 21.6151135181191449
  2.6873043988324601  1.3080064519959000 23.1817213688350989
  0.6523397512610303  2.4828938390626334 20.0485056674032052
