Br Hg Tl S  Tl
 1.0000000000000000
     4.1201263279860827    0.0010674728082233    0.0000000000000000
    -2.0591310860282119    3.5746318172335223    0.0000000000000000
     0.0000000000000036    0.0000000000000000   44.2031770321910713
 Br  Hg  Tl  S   Tl 
   2   2   1   2   1
Cartesian
  1.2266454269425757 -0.8806928146761768 15.0000000000000018
  1.2371259620979824  3.8641310204313424 20.7696522731609825
  1.2415553161991928  1.4781763048209606 19.2178916173209409
  1.2227638900834152  1.5049476340797998 16.5512692941072110
  0.7265594077353879  3.1466102865426060 28.0063196463595041
  2.7861636945573722  1.9549514529860725 23.9254296200340981
  0.7256072291806133  0.7628613451653355 29.2031770321910713
  0.7260807507321967  3.1470833139057905 25.1222849013455480
