Ge F  In Se In
 1.0000000000000000
     4.1675186950071614   -0.0000000000000000    0.0000000000000000
    -2.0837593475035807    3.6091770606234768    0.0000000000000000
     0.0000000000000013    0.0000000000000023   43.1259516089775730
 Ge  F   In  Se  In 
   2   2   1   2   1
Cartesian
  1.2087198017131910  0.5335349056809133 16.7809067055787082
  1.2087198053532655  2.9396529460965630 17.3739865908562336
  1.2087198017131910  0.5335349056809128 15.0000000000000000
  1.2087198053532655  2.9396529460965639 19.1548933276439897
  0.6579811170677291  3.3801461824617749 26.8555358598586373
  2.7417489509196669  2.1767202190513135 22.7702236269995311
  0.6578249656903573  0.9738055397571014 28.1259516089775730
  0.6578334490790205  3.3803636687876453 24.0406315916876423
