Cl Cd Br
 1.0000000000000000
     3.9970724218913674    0.0012519794577290    0.0000000000000000
    -1.9974430288427056    3.4685571576354168    0.0000000000000000
    -0.0000000000000033   -0.0000000000000000  -42.1454149049772511
 Cl  Cd  Br 
   2   3   2
Cartesian
  1.4618200362426710 -0.0850567493623199 -20.5111542448488748
  1.4743712228064281  4.5168530600774943 -15.0000000000000018
  1.4746837990911845  2.2045814267964627 -16.4191145843245287
  1.4615663306282998  2.2272131549685099 -19.0922030609392905
  0.6923233430707758  0.2529010234233610 -25.5788070542613113
  2.6912239480507858  1.4099213956069856 -24.0121992035453609
  0.6930521311394279  2.5656897883328811 -27.1454149049772511
