Zr Te Tl S 
 1.0000000000000000
     3.9899875211536973   -0.0000000000000000    0.0000000000000000
    -1.9949937605768486    3.4554305541020014    0.0000000000000000
     0.0000000000000000    0.0000000000000000   42.7463782747158163
 Zr  Te  Tl  S  
   1   2   2   2
Cartesian
 -0.3667530444773231  1.3199378023006441 16.8615645620742072
  1.6282407160995260  2.4717479870013110 18.7231291241485991
  1.6282407160995260  2.4717479870013110 15.0000000000000000
  2.2156318278636955  1.4578666126509308 23.6626184664605326
  2.2156318278636955  1.4578666126509308 26.5485359582506710
  0.2206380672868468  2.6096767973515975 22.4647761499958563
  0.2206380672868467  2.6096767973515975 27.7463782747158234
