Cd Cl Zn Br
 1.0000000000000000
     3.8488532569205285    0.0000000000000000    0.0000000000000000
    -1.9244266284602647    3.3332046959316521    0.0000000000000000
     0.0000000000000000    0.0000000000000000   39.2111362258605283
 Cd  Cl  Zn  Br 
   1   2   1   2
Cartesian
  0.5287542669269987  0.6979428334894769 16.4378714166122748
  2.4531808953872623  1.8090110654666947 17.8757428332245709
  0.5287542669269987  2.9200792974439120 15.0000000000000018
  0.6217886451385539  0.7223067357844672 22.7285376205289040
  2.5462152735988171  1.8333749677616844 24.2111362258605283
  0.6217886451385539  2.9444431997389016 21.2459390151973011
