Ga S  Ru Br
 1.0000000000000000
     3.7128639983759149    0.0000000000000000    0.0000000000000000
    -1.8564319991879574    3.2154345433902067    0.0000000000000000
     0.0000000000000000    0.0000000000000000   41.2819698455170681
 Ga  S   Ru  Br 
   2   2   1   2
Cartesian
  2.0284323521255159  1.4700234918119266 16.0940275853641523
  2.0284323521255159  1.4700234918119266 18.5727461466075034
  0.1720003529375588  2.5418350062753285 14.9999999999999964
  0.1720003529375588  2.5418350062753285 19.6667737319714959
 -0.0950208908839407  0.6622952552227979 24.9651206915674706
  1.7614111083040160  1.7341067696862005 26.2819698455170681
 -0.0950208908839406  2.8059182841496026 23.6482715376178660
