F  Pt Cd F 
 1.0000000000000000
     3.4520650073311607    0.0000585085648160    0.0000000000000000
    -1.7259817723748401    2.9897310319609511    0.0000000000000000
    -0.0000000000000010   -0.0000000000000000   39.1579946656192561
 F   Pt  Cd  F  
   2   2   1   2
Cartesian
 -0.6642497914072004  1.6413356429102799 15.0000000000000018
  2.7875847529664557  1.6420525175056475 18.7933056562285969
  1.0616103655904729  0.6451561190431725 17.6544166225755887
  1.0617471051557223  2.6381548398002015 16.1389253694520782
  0.6592523328865725  0.2655112951069788 23.1408329835900730
  2.3853017469823987  1.2621273114705065 24.1579946656192561
  0.6592861537470631  2.2586848192692184 22.1236713015609290
