Zr I  Cl Cd
 1.0000000000000000
     3.8805651183877519    0.0012519794577290    0.0000000000000000
    -1.9391893770908977    3.3676588730748627    0.0000000000000000
     0.0000000000000033    0.0000000000000000   42.1683225638777799
 Zr  I   Cl  Cd 
   1   2   2   2
Cartesian
 -0.3020088149705640  1.3976892784984507 16.9391452359630961
  1.6386381382576387  2.5210768891618911 18.8782904725522265
  1.6386381382576383  2.5210768891618911 15.0000000000000000
  1.2639696380569878 -0.3313967768854774 21.6571683190289122
  1.2761972488787552  4.1366704434157588 27.1683225638777799
  1.2764794760563252  1.8916493023202554 25.7492079795532547
  1.2637445655620774  1.9136226860812011 23.0761195029384965
