Zr Br Ge Se
 1.0000000000000000
     3.6142526495695719    0.0000000000000000    0.0000000000000000
    -1.8071263247847860    3.1300346102224657    0.0000000000000000
    -0.0000000000000000    0.0000000000000000   39.0464407617688565
 Zr  Br  Ge  Se 
   1   2   1   1
Cartesian
 -0.1032374246615838  1.2755758172593259 22.2202483392824135
  1.7038889001232023  2.3189206873334811 24.0464407617688565
  1.7038889001232023  2.3189206873334811 20.3940559087416062
  2.0680943569883223  1.7785687281490585 16.4473597337136077
  0.2609680322035368  2.8219135982232135 14.9999999999999982
