Sn O  F  Pd
 1.0000000000000000
     3.3185223754966446   -0.0000000000000000    0.0000000000000000
    -1.6592611868074079    2.8756256638888109    0.0000000000000000
    -0.0000000000000011    0.0000000000000000   38.0795216360140785
 Sn  O   F   Pd 
   1   1   2   2
Cartesian
  1.6840026225683378  0.8537433137980022 16.0113936186181398
  0.0247414351336533  1.8122852017609390 15.0000000000000000
 -0.5714439871753605  1.7269001545393117 19.1976678583058415
  2.7453956027696651  1.7308958977933826 23.0795216360140785
  1.0868537814053885  0.7710906047048003 21.9469135879949917
  1.0870158153599943  2.6869807587175045 20.3302253245682500
