Hg Cl Pt Te
 1.0000000000000000
     4.0049078368280409    0.0000000000000000    0.0000000000000000
    -2.0024539184140209    3.4683519265084666    0.0000000000000000
     0.0000000000000000    0.0000000000000000  -38.9261940456205195
 Hg  Cl  Pt  Te 
   1   2   1   2
Cartesian
  0.7782833472567265  1.0000221766556936 -16.4596042885843410
  2.7807372656707492  2.1561394854918499 -14.9999999999999964
  0.7782833472567270  3.3122567943280057 -17.9192085771686642
  0.6854342491784724  0.7748773378471809 -22.5389798170234918
  2.6878881675924919  1.9309946466833363 -21.1517655874699813
  0.6854342491784721  3.0871119555194917 -23.9261940456205195
