Cr Te Pb O 
 1.0000000000000000
     3.4361909214064923    0.0000000000000000    0.0000000000000000
    -1.7180954607032461    2.9758286301914794    0.0000000000000000
     0.0000000000000000    0.0000000000000000   34.8301585706094983
 Cr  Te  Pb  O  
   1   2   1   2
Cartesian
 -0.4042048906876362  1.0492574494515190 16.7062363127964808
  1.3138905700156098  2.0412003261820120 18.4124726255929616
  1.3138905700156098  2.0412003261820120 15.0000000000000000
  0.5965412552318521  0.9584140222135440 18.7715394144648187
  2.3146367159350980  1.9503568989440370 19.8301585706094983
  0.5965412552318521  2.9422997756745302 17.7129202583201391
