Cl Cd Sn Se
 1.0000000000000000
     3.8984548843725415    0.0012519794577290    0.0000000000000000
    -1.9481342600832927    3.3831518648854493    0.0000000000000000
     0.0000000000000033    0.0000000000000000   42.3159256475130050
 Cl  Cd  Sn  Se 
   2   2   1   2
Cartesian
  1.1617602884135896 -0.3155254603494800 14.9999999999999964
  1.1740375844836499  4.1730933693915304 20.5111542448488677
  1.1743244717847410  1.9177458750857004 19.0920396605243425
  1.1615308192860976  1.9398203480238723 16.4189511839095843
  0.6586601600259783  0.2926416434843104 25.7229946279387960
  2.6082519962465751  1.4211935847512793 27.3159256475129979
  0.6593889480946301  2.5484935465605192 24.1300636083645301
