Br Ag I  In
 1.0000000000000000
     4.4563723840370582   -0.0000000000000000    0.0000000000000000
    -2.2281861894729786    3.8632232639992110    0.0000000000000000
     0.0000000000000000    0.0000000000000000   43.1863068026215089
 Br  Ag  I   In 
   2   2   2   2
Cartesian
  1.3208040515753383  1.0760563714651816 15.0000000000000000
  1.3236661049087703  3.6488655620350752 18.8414998721338058
  1.3196621055085187  1.0768434949982564 17.8250159142190121
  1.3248143101902654  3.6480690067381865 16.0173027462489586
  1.2888922532278042  0.9952858470199405 21.8338422297418688
  1.2889526610458235  3.5702067908859010 28.1863068026215089
  1.2881615914774216  0.9957260277384378 26.3276324031551709
  1.2896834570889333  3.5697670670415351 23.6933252309421007
