Cr Te Mo Te
 1.0000000000000000
     3.5087800939355107    0.0000000000000000    0.0000000000000000
    -1.7543900469677554    3.0386926976413009    0.0000000000000000
     0.0000000000000000    0.0000000000000000   41.0199339027409451
 Cr  Te  Mo  Te 
   1   2   1   2
Cartesian
  0.2223819291831877  1.3247514849794264 16.7062363127964808
  1.9767719761509426  2.3376490508598602 18.4124726255929616
  1.9767719761509426  2.3376490508598602 14.9999999999999982
  0.3244425638545292  1.4062432382599628 24.2148339027409492
  2.0788326108222845  2.4191408041403970 26.0199339027409451
  2.0788326108222845  2.4191408041403970 22.4097339027409532
