Al S  Ni Se
 1.0000000000000000
     3.5628764458252196    0.0000000000000000    0.0000000000000000
    -1.7814382229126098    3.0855415126298507    0.0000000000000000
     0.0000000000000000    0.0000000000000000   41.2210006769013049
 Al  S   Ni  Se 
   2   2   1   2
Cartesian
  1.9972812620642588  1.4630290348295745 16.0691806254429004
  1.9972812620642588  1.4630290348295745 18.6673481735629565
  0.2158430391516494  2.4915428723728574 15.0000000000000000
  0.2158430391516494  2.4915428723728574 19.7365287990058356
 -0.0084644993363890  0.4760863841011723 24.9756597328844983
  1.7729737235762206  1.5046002216444556 26.2210006769013049
 -0.0084644993363892  2.5331140591877390 23.7303187894063399
