Hf Se Sn Se
 1.0000000000000000
     3.8187204636703500   -0.0000000000000000    0.0000000000000000
    -1.9093602318351750    3.3071089314900135    0.0000000000000000
     0.0000000000000000    0.0000000000000000   39.6506745653215447
 Hf  Se  Sn  Se 
   1   2   1   2
Cartesian
  0.5835002864030155  0.6913617854894244 16.5758890207771756
  2.4928605182381904  1.7937314293194286 18.1517780415566818
  0.5835002864030154  2.8961010731494330 15.0000000000000000
  0.6241433669245596  0.8251118408264919 23.0577435457473392
  2.5335035987597343  1.9274814846564963 24.6506745653215447
  0.6241433669245596  3.0298511284865004 21.4648125261730769
