Si F  Se Zn
 1.0000000000000000
     4.0098088898231143    0.0000000000000000    0.0000000000000000
    -2.0049044437452386    3.4727596381043115    0.0000000000000000
     0.0000000000000012    0.0000000000000022   40.6414475887984565
 Si  F   Se  Zn 
   2   2   2   2
Cartesian
  1.2241371256729892  0.8968440496119502 16.6424290354395481
  1.2241371244560675  3.2120171416814904 17.3462560958598786
  1.2241371256729892  0.8968440496119496 15.0000000000000000
  1.2241371244560675  3.2120171416814909 18.9886851313004463
  1.3325008956684008  0.8048303911587996 22.2281439981074733
  1.3326044950139271  3.1198722481627690 25.6414475887984565
  1.3324019529360829  0.8048843951532744 24.8838411797173933
  1.3327034088182304  3.1198182422167773 22.9861256001957130
