Al S  Ru Cl
 1.0000000000000000
     3.5885871417744233    0.0000000000000000    0.0000000000000000
    -1.7942935708872119    3.1078076284708391    0.0000000000000000
     0.0000000000000000    0.0000000000000000   41.1851245441744283
 Al  S   Ru  Cl 
   2   2   1   2
Cartesian
  2.0103249023735952  1.4711530532019392 16.0691806254428968
  2.0103249023735952  1.4711530532019392 18.6673481735629530
  0.2160313314863833  2.5070889293588854 14.9999999999999982
  0.2160313314863833  2.5070889293588854 19.7365287990058320
 -0.0067680835652123  0.4795641746400922 24.9577483945588341
  1.7875254873220006  1.5155000507970384 26.1851245441744283
 -0.0067680835652110  2.5514359269539848 23.7303722554618020
