Hg Se Tl Te
 1.0000000000000000
     4.4874510968533707    0.0000000000000000    0.0000000000000000
    -2.2437255484266854    3.8862466481153621    0.0000000000000000
    -0.0000000000000000    0.0000000000000000   39.5749072181182413
 Hg  Se  Tl  Te 
   1   1   2   2
Cartesian
  2.0575020771216055  2.2468195297270661 15.3939973822751650
 -0.1862234713050793  3.5422350790988535 14.9999999999999982
  1.2286943098922147  2.0415575217500677 20.2910605344046289
  1.2286943098922147  2.0415575217500677 23.1912846703018793
 -1.0150312385344700  3.3369730711218550 18.9074379473565308
 -1.0150312385344702  3.3369730711218550 24.5749072181182413
