Ge S  Ni S 
 1.0000000000000000
     3.4209924326983598   -0.0000000000000000    0.0000000000000000
    -1.7104962163491799    2.9626663528711052    0.0000000000000000
     0.0000000000000000    0.0000000000000000   37.3196933297695423
 Ge  S   Ni  S  
   1   1   1   2
Cartesian
  2.1131645590224588  1.0230880295108937 16.3610326690029417
  0.4026683426732794  2.0106434804679285 15.0000000000000000
  0.7747112065517754  0.1388000502068388 21.1442594015442857
  2.4852074229009555  1.1263555011638737 22.3196933297695423
  0.7747112065517754  2.1139109521209085 19.9688254733190291
