Ti Se Al S 
 1.0000000000000000
     3.5396455516583289    0.0000000000000000    0.0000000000000000
    -1.7698227758291645    3.0654229681286957    0.0000000000000000
     0.0000000000000000    0.0000000000000000   41.8593619454569890
 Ti  Se  Al  S  
   1   2   2   2
Cartesian
 -0.6400495344149453  1.4492376262929523 16.6199398271809464
  1.1297732414142194  2.4710452823358509 18.2398796543619532
  1.1297732414142194  2.4710452823358509 15.0000000000000000
  2.0581772838041803  1.4399247802816451 23.1920137718940609
  2.0581772838041803  1.4399247802816451 25.7901813200141135
  0.2883545079750158  2.4617324363245436 22.1228331464511605
  0.2883545079750158  2.4617324363245436 26.8593619454569961
