Pb Br S  Hf
 1.0000000000000000
     4.2279301864176837    0.0000000000000000    0.0000000000000000
    -2.1139650920241451    3.6620275766561612    0.0000000000000000
    -0.0000000000000000    0.0000000000000000   40.2710186446203835
 Pb  Br  S   Hf 
   1   2   2   2
Cartesian
 -0.7190865209120634  1.7977089276973677 16.8414801415537809
  1.3948785726916773  3.0183847865827547 18.6829602831084465
  1.3948785726916773  3.0183847865827547 15.0000000000000000
  1.0460573924927805  0.6579316039694142 21.9455319980380104
  1.0463878220807321  3.0987581992484987 25.2710186446203835
  1.0461868447544362  0.6578047758808161 24.5501131333362927
  1.0462583596875379  3.0988850326353496 22.6665283434820637
