Br Ag I  Hg
 1.0000000000000000
     4.4447871818538225   -0.0000000000000011    0.0000000000000000
    -2.2223935883879786    3.8676249901313344    0.0000000000000000
     0.0000000000000035    0.0000000000000000   42.5753997116436125
 Br  Ag  I   Hg 
   2   2   2   2
Cartesian
  1.3081221967321359  0.9039528364220264 15.0000000000000000
  1.3109768096042085  3.4796934655014753 18.8414998721338058
  1.3069832193750488  0.9047408567974495 17.8250159142190121
  1.3121220299039316  3.4788960026157607 16.0173027462489586
  1.2082006048452558 -0.2583165790930300 21.6511679661469501
  1.2179334275626559  4.8630849812732269 27.5753997116436196
  1.2264984348370813  2.2883493922519440 25.9552873908860313
  1.2050101901774992  2.3125630140257583 23.2718262213998059
