Se Hf Te Zn
 1.0000000000000000
     4.2974808077910289   -0.0000000000000000    0.0000000000000000
    -2.1487404014407252    3.7229569599150243    0.0000000000000000
    -0.0000000000000000    0.0000000000000000   40.5920946101187141
 Se  Hf  Te  Zn 
   2   2   2   2
Cartesian
  1.2251509820079036  0.9834333487934441 15.0000000000000000
  1.2254170719611068  3.4648282309591547 18.6912765295358660
  1.2252127277615033  0.9833655068967110 17.7686483511876112
  1.2253554019155413  3.4648961256965451 15.9230671053787347
  1.4969390656594983  1.0039402347058441 21.8323472439713591
  1.4970454453741335  3.4856343891874508 25.5920946101187141
  1.4968058053776119  1.0040261136819373 24.6433057389776273
  1.4971784765238900  3.4855481487254294 22.7814874509762859
