Pb Te In Te
 1.0000000000000000
     4.3468803840057868    0.0000000000000000    0.0000000000000000
    -2.1734401920028934    3.7645088397612581    0.0000000000000000
     0.0000000000000000    0.0000000000000000   40.0932971160463651
 Pb  Te  In  Te 
   1   1   2   2
Cartesian
  2.3939357883213761  1.3383371586578043 16.6845068820464739
  0.2204955963184827  2.5931734385782237 14.9999999999999964
  2.1736177281139533  1.4899361473802935 20.9001550269401051
  2.1736177281139533  1.4899361473802935 23.7123427778583888
  0.0001775361110599  2.7447724273007128 19.5192006887378469
  0.0001775361110598  2.7447724273007128 25.0932971160463723
