Cr S  Al N 
 1.0000000000000000
     3.0910769696751581    0.0000000000000000    0.0000000000000000
    -1.5455384848375791    2.6769511807917077    0.0000000000000000
     0.0000000000000000    0.0000000000000000  -36.8943578485366572
 Cr  S   Al  N  
   1   2   1   1
Cartesian
  0.0208865185961529  0.7918665803641367 -16.4740845698072675
  1.5664250034337317  1.6841836406280393 -15.0000000000000036
  1.5664250034337317  1.6841836406280393 -17.9481691396145315
  0.4460209444067886  2.0741028462609403 -21.8943578485366537
  1.9915594292443677  1.1817857859970380 -21.8943578485366572
