Br Cd Br
 1.0000000000000000
     4.0831520328038131    0.0014024937248978    0.0000000000000000
    -2.0403514109000760    3.5419312082606407    0.0000000000000000
     0.0000000000000033    0.0000000000000000   42.4201979155540059
 Br  Cd  Br 
   2   3   2
Cartesian
  1.1522085106060262 -0.3156378378717891 15.0000000000000018
  1.1654445018223407  4.3834811921222396 20.7228492099078068
  1.1652582943147656  2.0223645746761649 19.2010592037222949
  1.1519830981445152  2.0458116083952933 16.5215258816321011
  0.6669115957741796  0.2766808402384081 25.8535900648380519
  2.7088958140100301  1.4582595721418863 27.4201979155540059
  0.6677279994420666  2.6384358103204670 24.2869822141221157
