Ba Br Pb S 
 1.0000000000000000
     4.7097245678717501    0.0000000000000000    0.0000000000000000
    -2.3548622839358750    4.0787411206046231    0.0000000000000000
     0.0000000000000000    0.0000000000000000   34.7494682514902209
 Ba  Br  Pb  S  
   1   2   1   2
Cartesian
  0.2739384275234555  1.5987250266358353 16.8371869788974422
  2.6288007114593301  2.9583054001707092 18.6743739577948844
  2.6288007114593301  2.9583054001707092 15.0000000000000000
  0.3190644705104574  1.8321079093125843 18.6743575387215905
  2.6739267544463323  3.1916882828474584 19.7494682514902209
  2.6739267544463323  3.1916882828474584 17.5992468259529602
