Sn Se Sn Se
 1.0000000000000000
     3.8858252727622085   -0.0000000000000000    0.0000000000000000
    -1.9429126363811042    3.3652234008796680    0.0000000000000000
     0.0000000000000000    0.0000000000000000   38.3024494163812719
 Sn  Se  Sn  Se 
   1   1   1   2
Cartesian
  2.1948644383842675  1.3723214877650738 16.5586206887278209
  0.2519518020031637  2.4940626213916297 15.0000000000000000
  0.6824605355502811  0.1566981478487787 21.7095183968070664
  2.6253731719313849  1.2784392814753347 23.3024494163812719
  0.6824605355502811  2.4001804151018904 20.1165873772328005
