Hf Cl Ga N 
 1.0000000000000000
     3.3089127324012058    0.0000000000000000    0.0000000000000000
    -1.6544563662006029    2.8656024851652244    0.0000000000000000
     0.0000000000000000    0.0000000000000000   33.4599141836685092
 Hf  Cl  Ga  N  
   1   2   1   1
Cartesian
 -0.3499744006468425  0.8902632619287355 16.7299570918342546
  1.3044819655537605  1.8454640903171435 18.4599141836685092
  1.3044819655537605  1.8454640903171435 15.0000000000000000
  0.7365506919813550  2.4233891859245187 16.6957694946621515
  2.3910070581819580  1.4681883575361105 16.6957694946621515
