Pd S  Pt S 
 1.0000000000000000
     3.5635134204501751    0.0000000000000000    0.0000000000000000
    -1.7817567102250875    3.0860931488366288    0.0000000000000000
     0.0000000000000000    0.0000000000000000   38.5033218121692329
 Pd  S   Pt  S  
   1   2   1   2
Cartesian
  0.4683289649412068  0.7371940135409815 16.2450718334045305
  2.2500856751662943  1.7658917298198578 17.4901436668090611
  0.4683289649412068  2.7945894460987337 14.9999999999999982
  0.5380779984067792  0.3978076905227643 22.2712944426687613
  2.3198347086318662  1.4265054068016407 23.5033218121692329
  0.5380779984067789  2.4552031230805169 21.0392670731682969
