Ba Cl Te Cd
 1.0000000000000000
     4.6011034130634600   -0.0000000000000000    0.0000000000000000
    -2.3005517051982975    3.9855635506830511    0.0000000000000000
    -0.0000000000000000    0.0000000000000000   40.6058364227453126
 Ba  Cl  Te  Cd 
   1   2   2   2
Cartesian
 -0.4307373199696475  1.7629381080266300 16.6919307837616309
  1.8698143870065600  3.0914592915876464 18.3838615675232617
  1.8698143870065600  3.0914592915876464 15.0000000000000000
  1.2663463805593409  0.8180128839815848 21.6190348347791605
  1.2664541530290725  3.4745266275933684 25.6058364227453126
  1.2659705044794727  0.8182535812096692 24.6628940442309101
  1.2668315015680978  3.4742855251102069 22.5615273537767749
