Br Cu Cd Cl
 1.0000000000000000
     3.9261235462357416   -0.0000000000000000    0.0000000000000000
    -1.9630617719889634    3.4009367117388769    0.0000000000000000
    -0.0000000000000000    0.0000000000000000   40.4367185729842546
 Br  Cu  Cd  Cl 
   2   2   1   2
Cartesian
  1.1350181046518466  0.8624375570654087 15.0000000000000000
  1.1359304627936082  3.1287854005190625 18.6331282326220560
  1.1346729696322946  0.8626637884825404 17.4857902901367552
  1.1362735054747737  3.1285599903101087 16.1476785051133049
  0.6289283335056940  0.3041894982743260 23.9988471563719550
  2.5919901069998668  1.4378350688539518 25.4367185729842475
  0.6289283342582992  2.5714806394335779 22.5609757397596802
