Br Cu Hg Cl
 1.0000000000000000
     3.9733213426651739    0.0000000000000000    0.0000000000000000
    -1.9866606702036795    3.4418112024494114    0.0000000000000000
    -0.0000000000000000    0.0000000000000000   40.4795243746679105
 Br  Cu  Hg  Cl 
   2   2   1   2
Cartesian
  1.1445681291957768  0.8849782742899686 15.0000000000000000
  1.1454914552191733  3.1785644411015195 18.6331282326220524
  1.1442188451441819  0.8852072246915277 17.4857902901367552
  1.1458386217793877  3.1783363217779090 16.1476785051133049
  0.6331989715907900  0.3236029910077411 24.0199200860835731
  2.6198596432996819  1.4708733918242121 25.4795243746679176
  0.6331989723433957  2.6181437926406828 22.5603157974992499
