Mg Br Sn Se
 1.0000000000000000
     3.8741872129495318   -0.0000000000000000    0.0000000000000000
    -1.9370936064747659    3.3551445454311275    0.0000000000000000
     0.0000000000000000    0.0000000000000000   39.5125907787589412
 Mg  Br  Sn  Se 
   1   2   1   2
Cartesian
  0.6235254841122004  0.7385837084365403 16.5070256484157625
  2.5606190905869646  1.8569652235802505 18.0140512968315214
  0.6235254841122003  2.9753467387239607 15.0000000000000000
  0.6118290198111149  0.7289971830380442 22.9196597591847357
  2.5489226262858811  1.8473786981817533 24.5125907787589412
  0.6118290198111149  2.9657602133254626 21.3267287396104699
