Hg I  Pb Br
 1.0000000000000000
     4.4370979429506630    0.0000000000000000    0.0000000000000000
    -2.2185489714753319    3.8426395376749491    0.0000000000000000
     0.0000000000000000    0.0000000000000000  -39.7767993989877340
 Hg  I   Pb  Br 
   1   2   1   2
Cartesian
  0.8160548978453681  1.1641233132715871 -16.7432505159098142
  3.0346038693207005  2.4450031591632371 -15.0000000000000000
  0.8160548978453679  3.7258830050548868 -18.4865010318196283
  0.7792269548977885  0.8727722875436175 -23.1125277313481092
  2.9977759263731194  2.1536521334352665 -21.4482560637084703
  0.7792269548977881  3.4345319793269158 -24.7767993989877269
