In Se Pb Se
 1.0000000000000000
     4.0367260788015695   -0.0000000000000000    0.0000000000000000
    -2.0183630394007848    3.4959073323613028    0.0000000000000000
     0.0000000000000000    0.0000000000000000   42.6929874010951949
 In  Se  Pb  Se 
   2   2   1   2
Cartesian
  2.3186235529295014  1.6246879911682239 16.2765302461401262
  2.3186235529295014  1.6246879911682239 19.0907759595263933
  0.3002605135287172  2.7899904352886580 15.0000000000000000
  0.3002605135287172  2.7899904352886580 20.3673061832687665
 -0.0072452265826227  0.5203173159716225 26.0238882445947404
  2.0111178128181622  1.6856197600920571 27.6929874010951949
 -0.0072452265826230  2.8509222042124915 24.3547890880942859
