Ti Te Zn Cl
 1.0000000000000000
     3.6678274185087854    0.0000000000000000    0.0000000000000000
    -1.8339137092543929    3.1764317211257058    0.0000000000000000
     0.0000000000000000    0.0000000000000000   35.1475261503999974
 Ti  Te  Zn  Cl 
   1   2   1   2
Cartesian
  0.3061058762692163  0.6013744253779603 16.7885301883608946
  2.1400195855236088  1.6601849990865287 18.5770603767261022
  2.1400195855236088  1.6601849990865287 15.0000000000000018
  1.0178061791784727  0.3410620883420654 18.7800591618178814
  2.8517198884328643  1.3998726620506337 20.1475261503999974
  1.0178061791784725  2.4586832357592017 17.4125921732357440
