S  Ti Pt Te
 1.0000000000000000
     3.9668690144197218   -0.0000000000000000    0.0000000000000000
    -1.9834345060908727    3.4362550636803411    0.0000000000000000
     0.0000000000000000    0.0000000000000000   39.8681334331189774
 S   Ti  Pt  Te 
   2   2   1   2
Cartesian
  1.2146483544921258  0.7717161361979087 15.0000000000000000
  1.2148621285044143  3.0619489108173346 18.2247483793411611
  1.2145789701168324  0.7717239503487068 17.4814467457056111
  1.2149315406067172  3.0619411002515693 15.7433429186812184
  0.7058516437809850 -0.1066445935246944 23.4809192035654668
  2.6892861513638415  1.0387737610354191 24.8681334331189774
  0.7058516445269771  2.1841921155955326 22.0937049749684356
