W  S  Ga N 
 1.0000000000000000
     3.2271958979217108    0.0000000000000000    0.0000000000000000
    -1.6135979489608554    2.7948336305891335    0.0000000000000000
     0.0000000000000000    0.0000000000000000   37.0784635089029706
 W   S   Ga  N  
   1   2   1   1
Cartesian
  0.0414000793024464  0.8402287992161048 20.5056660709167851
  1.6549980282633014  1.7718400094124824 22.0784635089029706
  1.6549980282633014  1.7718400094124824 18.9328686329305995
  0.4600005232956911  2.1096358007783622 14.9999999999999964
  2.0735984722565464  1.1780245905819842 14.9999999999999964
