Pb Se Ca Cl
 1.0000000000000000
     4.1077050613719965    0.0000000000000000    0.0000000000000000
    -2.0538525306859983    3.5573769344020572    0.0000000000000000
    -0.0000000000000000    0.0000000000000000   37.7484337254171081
 Pb  Se  Ca  Cl 
   1   1   1   2
Cartesian
  2.3449005607823232  1.8556189589970782 16.5482420467417022
  0.2910480300963253  3.0414112704644305 15.0000000000000000
  0.4286869302442534  0.3788819117482365 21.3462629089880345
  2.4825394609302509  1.5646742232155884 22.7484337254171081
  0.4286869302442535  2.7504665346829400 19.9440920925589680
