Br Pt Ga Se Ga
 1.0000000000000000
     3.7956941379948494    0.0000194514724014    0.0000000000000000
    -1.8978302190061556    3.2872063754628869    0.0000000000000000
    -0.0000000000000002   -0.0000000000000000   43.0976960777589966
 Br  Pt  Ga  Se  Ga 
   2   2   1   2   1
Cartesian
 -0.8054605883849668  1.2240110545523304 15.0000000000000000
  2.9901051608194371  1.2241738657217813 19.3348512724562163
  1.0921776742307490  0.1282946288075433 17.8923023562523369
  1.0922210263402281  2.3197338131433822 16.4415417443947689
  0.6342560368814389  2.7576262599433443 26.9262371209314608
  2.5321553682203106  1.6618639046180863 23.2850129375195820
  0.6340673909759280  0.5662603337364803 28.0976960777589966
  0.6341365037512871  2.7577043534108818 24.4564715321744970
