Si F  Sn Se
 1.0000000000000000
     3.9045723377163695    0.0000000000000000    0.0000000000000000
    -1.9522861688558080    3.3814588353752422    0.0000000000000000
     0.0000000000000013    0.0000000000000022   41.0656782494136365
 Si  F   Sn  Se 
   2   2   1   2
Cartesian
  1.1674646955005021  0.5697477109469885 16.6424290354395481
  1.1674646935599637  2.8240536011971491 17.3462560958598786
  1.1674646955005021  0.5697477109469881 15.0000000000000000
  1.1674646935599637  2.8240536011971500 18.9886851313004463
  0.7328314527250769 -0.2498001135200139 24.4727472298394311
  2.6851176215840535  0.8773528316050671 26.0656782494136365
  0.7328314527266613  2.0045057767301477 22.8798162102651652
