Cd Cl Hf Se
 1.0000000000000000
     3.8360996709541642   -0.0000000000000000    0.0000000000000000
    -1.9180498354770821    3.3221597664954317    0.0000000000000000
     0.0000000000000000    0.0000000000000000   39.3683083150308661
 Cd  Cl  Hf  Se 
   1   2   1   2
Cartesian
  0.5669716601121182  0.7711875920449751 16.4378714166122712
  2.4850214955891996  1.8785741808767860 17.8757428332245638
  0.5669716601121184  2.9859607697085968 14.9999999999999982
  0.6513768818323744  0.8769222853340961 22.7924192942513670
  2.5694267173094563  1.9843088741659067 24.3683083150308661
  0.6513768818323742  3.0916954629977176 21.2165302734741914
