Ga S  Ru Cl
 1.0000000000000000
     3.6192482998133251    0.0000000000000000    0.0000000000000000
    -1.8096241499066630    3.1343609702419775    0.0000000000000000
     0.0000000000000000    0.0000000000000000   41.0959365050025980
 Ga  S   Ru  Cl 
   2   2   1   2
Cartesian
  1.9752348674743538  1.4469257834568818 16.0940275853641523
  1.9752348674743538  1.4469257834568818 18.5727461466075034
  0.1656107175676915  2.4917127735375404 15.0000000000000000
  0.1656107175676915  2.4917127735375404 19.6667737319714959
 -0.1662626489607540  0.7115177966499562 24.8685603553870038
  1.6433615009459093  1.7563047867306152 26.0959365050025980
 -0.1662626489607528  2.8010917768112744 23.6411842162899717
