Hf Cl Zr Cl
 1.0000000000000000
     3.3797471584412371    0.0000000000000000    0.0000000000000000
    -1.6898735792206185    2.9269468975783814    0.0000000000000000
     0.0000000000000000    0.0000000000000000   35.1677917432670100
 Hf  Cl  Zr  Cl 
   1   2   1   2
Cartesian
  0.3515859348709321  1.2127416967806517 16.7299570918342546
  2.0414595140915508  2.1883906626401122 18.4599141836685092
  2.0414595140915508  2.1883906626401122 15.0000000000000000
  0.3806919187389866  1.3920443368088078 18.4598925233482163
  2.0705654979596049  2.3676933026682683 20.1677917432670100
  2.0705654979596049  2.3676933026682683 16.7519933034294084
