Se Ir In O 
 1.0000000000000000
     3.4242014984080082    0.0000000000000000    0.0000000000000000
    -1.7121007482306174    2.9703594706317458    0.0000000000000000
    -0.0000000000000000    0.0000000000000000   43.1700744982715889
 Se  Ir  In  O  
   2   2   2   2
Cartesian
  0.6047325626736733  0.6665057927615529 15.0000000000000000
  0.6044768208214740  2.6459229500331594 19.7747437366469150
  0.6044075863598694  0.6688574734822544 18.3902535308702610
  0.6048018999401237  2.6435692811711560 16.3845210824534178
  1.9109626343783046  1.3103429475951545 24.5291396786179732
  1.9109626343783046  1.3103429475951545 27.3794048762392492
  0.1988618854987629  2.3004627711390695 23.7384700535987676
  0.1988618854987629  2.3004627711390695 28.1700744982715889
