Hf Se Zn Br
 1.0000000000000000
     3.7853534973124416    0.0000000000000000    0.0000000000000000
    -1.8926767486562213    3.2782122909768443    0.0000000000000000
    -0.0000000000000000    0.0000000000000000  -39.3105516069887457
 Hf  Se  Zn  Br 
   1   2   1   2
Cartesian
  0.7498954231604701  1.0878008602170630 -16.5758890207795062
  2.6425721718166901  2.1805382905426773 -15.0000000000000036
  0.7498954231604696  3.2732757208682921 -18.1517780415566818
  0.7644193441629983  0.7081843669263732 -22.8279530016571464
  2.6570960928192182  1.8009217972519878 -21.3453543963255257
  0.7644193441629983  2.8936592275776025 -24.3105516069887493
