W  Se Ge S 
 1.0000000000000000
     3.3812825791931362    0.0000000000000000    0.0000000000000000
    -1.6906412895965681    2.9282766109550238    0.0000000000000000
    -0.0000000000000000    0.0000000000000000   39.9803648670102731
 W   Se  Ge  S  
   1   2   1   2
Cartesian
 -0.3366877947387317  1.0129809043028060 16.6792764021964075
  1.3539534948578364  1.9890731079544803 18.3585528043928150
  1.3539534948578364  1.9890731079544803 15.0000000000000000
  0.5122664374696122  0.8350753738792656 23.5833557411737900
  2.2029077270661808  1.8111675775309402 24.9803648670102802
  0.5122664374696122  2.7872597811826147 22.1863466153371007
