Ti Br Zn Cl
 1.0000000000000000
     3.5354594234280015    0.0000000000000000    0.0000000000000000
    -1.7677297117140010    3.0617976747377336    0.0000000000000000
     0.0000000000000000    0.0000000000000000   39.9214048054174384
 Ti  Br  Zn  Cl 
   1   2   1   2
Cartesian
 -0.3860515458128152  1.1279540540986370 16.6938534583278368
  1.3816781659011856  2.1485532790112147 18.3877069173080017
  1.3816781659011856  2.1485532790112147 15.0000000000000000
  0.4317291355790133  0.9239503872138202 23.5539378168353224
  2.1994588472930130  1.9445496121263977 24.9214048054174384
  0.4317291355790133  2.9651488370389756 22.1864708282531851
