In O  Pb O 
 1.0000000000000000
     3.4212473896595474    0.0000000000000000    0.0000000000000000
    -1.7106236948297737    2.9628871520763660    0.0000000000000000
     0.0000000000000000    0.0000000000000000   40.1250744484065294
 In  O   Pb  O  
   2   2   1   2
Cartesian
  1.9673108720332459  1.3115557151438051 21.4841396287529136
  1.9673108720332459  1.3115557151438051 24.3344048263741897
  0.2566871772034721  2.2991847658359270 20.6934700037337080
  0.2566871772034721  2.2991847658359270 25.1250744484065294
  0.1715167682519525  0.5563683204822673 16.0586191561446796
  1.8821404630817260  1.5439973711743893 17.1172383122893592
  0.1715167682519525  2.5316264218665108 14.9999999999999982
