Ti Te Zr Se
 1.0000000000000000
     3.7658088629331727    0.0000000000000000    0.0000000000000000
    -1.8829044314665864    3.2612861410967184    0.0000000000000000
    -0.0000000000000000    0.0000000000000000   40.5368017142531230
 Ti  Te  Zr  Se 
   1   2   1   2
Cartesian
 -0.2966693684748993  1.2659165469211640 16.7885301883608946
  1.5862350629916870  2.3530119272867371 18.5770603767261022
  1.5862350629916870  2.3530119272867371 15.0000000000000000
  0.5424458142602161  0.8720817764899161 23.9561964091211053
  2.4253502457268024  1.9591771568554885 25.5368017142531301
  0.5424458142602161  3.0462725372210611 22.3755911039889526
