Tl S  Pb Se
 1.0000000000000000
     4.0283301092037922   -0.0000000000000000    0.0000000000000000
    -2.0141650546018961    3.4886362094002257    0.0000000000000000
     0.0000000000000000    0.0000000000000000   36.3517971812781511
 Tl  S   Pb  Se 
   2   2   1   2
Cartesian
  2.2673600873696711  1.6811746012338549 17.2680373730228602
  2.2673600873696711  1.6811746012338549 20.1539548648129987
  0.2531950327677748  2.8440533377005970 16.0701950565581839
  0.2531950327677747  2.8440533377005970 21.3517971812781511
 -0.0635125981215612  0.7187858188231613 16.6690991565004580
  1.9506524564803347  1.8816645552899034 18.3381983130009090
 -0.0635125981215615  3.0445432917566455 15.0000000000000036
