Sn S  Br Pt
 1.0000000000000000
     3.7541016040775976    0.0000194514724014    0.0000000000000000
    -1.8770339494144097    3.2511727437061331    0.0000000000000000
    -0.0000000000000002   -0.0000000000000000   38.3852128110875341
 Sn  S   Br  Pt 
   1   1   2   2
Cartesian
  2.1704577712508959  1.8663314115828469 16.4598471617338120
  0.2934125867535599  2.9500491756607570 15.0000000000000018
 -0.8573518953230617  1.5131344363220305 19.0503615386313214
  2.8966227268335398  1.5132956760115173 23.3852128110875412
  1.0194923259734336  0.4294290835933399 21.9426638948836583
  1.0195353278843109  2.5968462656790239 20.4919032830260903
