Hf Te Br Cu
 1.0000000000000000
     3.9309890683524245    0.0000000000000000    0.0000000000000000
    -1.9654945330473046    3.4051503774945995    0.0000000000000000
    -0.0000000000000000    0.0000000000000000   40.9423431185331168
 Hf  Te  Br  Cu 
   1   2   2   2
Cartesian
 -0.4982906455107470  1.5907948153851321 16.8494380278571079
  1.4672038890417678  2.7258449412166654 18.6988761198817670
  1.4672038890417678  2.7258449412166654 15.0000000000000000
  1.3710382950206565  1.0055922937364197 22.3092148859110644
  1.3719517838183961  3.2747480789743335 25.9423431185331168
  1.3706927322860691  1.0058188054479691 24.7950051760478161
  1.3722952516216274  3.2745223894884163 23.4568933910243658
