Sr Br I  In
 1.0000000000000000
     4.4337772817961358   -0.0000000000000000    0.0000000000000000
    -2.2168886396189107    3.8412278389167755    0.0000000000000000
     0.0000000000000000    0.0000000000000000   43.3481140405723124
 Sr  Br  I   In 
   1   2   2   2
Cartesian
 -0.3403471152417630  1.5595999733564629 16.8028165994893719
  1.8765415260826908  2.8400092529953880 18.6056331989787473
  1.8765415260826908  2.8400092529953880 14.9999999999999964
  1.3560475735557751  0.7809445330883393 21.9956494676926795
  1.3561076742531375  3.3412050556315709 28.3481140405723124
  1.3553206164725284  0.7813822076192944 26.4894396411059816
  1.3568347649482080  3.3407678353735148 23.8551324688929114
