Zr Br Zr S 
 1.0000000000000000
     3.6222805830668880   -0.0000000000000000    0.0000000000000000
    -1.8111402915334440    3.1369870045710329    0.0000000000000000
    -0.0000000000000000    0.0000000000000000   40.2298565329552176
 Zr  Br  Zr  S  
   1   2   1   2
Cartesian
 -0.7701461293868689  1.4805856730514475 23.4036641104687746
  1.0409941621465753  2.5262480079084586 25.2298565329552176
  1.0409941621465753  2.5262480079084586 21.5774716799279673
  0.7330592658670616  1.0924163769073916 16.4458824427441250
  2.5441995574005052  2.1380787117644022 17.8917648854881861
  0.7330592658670614  3.1837410466214129 14.9999999999999982
