Ti I  Zn Br
 1.0000000000000000
     3.7835154220652862    0.0000000000000000    0.0000000000000000
    -1.8917577110326436    3.2766204711187403    0.0000000000000000
     0.0000000000000000    0.0000000000000000   40.4129756334269175
 Ti  I   Zn  Br 
   1   2   1   2
Cartesian
 -0.5747381656741458  1.4208262068274480 16.8143657812576173
  1.3170195453584970  2.5130330305336948 18.6287315661405373
  1.3170195453584970  2.5130330305336948 14.9999999999999982
  0.3394289422221716  1.0053279546762628 23.9303770280952968
  2.2311866532548135  2.0975347783825096 25.4129756334269175
  0.3394289422221716  3.1897416020887559 22.4477784227636938
