Pb Br Ag
 1.0000000000000000
     4.3709526062731738   -0.0000000000000000    0.0000000000000000
    -2.1854763018701933    3.7877834883110593    0.0000000000000000
     0.0000000000000000    0.0000000000000000   40.7937292208632911
 Pb  Br  Ag 
   1   4   2
Cartesian
 -0.3203229845159922  1.7463432706674831 16.8414801415537845
  1.8651533190427267  3.0089377667711696 18.6829602831084465
  1.8651533190427267  3.0089377667711696 15.0000000000000000
  1.1570896567363307  0.8156195491178935 21.9522293487294817
  1.1598968493915844  3.3381877530915105 25.7937292208632911
  1.1559695994996453  0.8163913019569347 24.7772452629484974
  1.1610230458662767  3.3374067526690920 22.9695320949784438
