Cl Ag Se Zr
 1.0000000000000000
     4.3628890503947897    0.0000000000000000    0.0000000000000000
    -2.1814445227052435    3.7870503048424631    0.0000000000000000
    -0.0000000000000000    0.0000000000000000   40.6354431031482903
 Cl  Ag  Se  Zr 
   2   2   2   2
Cartesian
  1.3704454772144863  0.8796708076562523 15.0000000000000000
  1.3659722019433631  3.3991679798515300 18.2868565417185991
  1.3659132719867149  0.8818156944743942 17.9775021923323379
  1.3705399212583704  3.3970044889258535 15.3080484603362663
  1.4634774643123474  0.9527639735786964 21.9760160021899722
  1.4637602816132800  3.4769445067924192 25.6354431031482974
  1.4634753112426346  0.9527264947956788 24.7499120265999721
  1.4637624479304594  3.4769819626038068 22.8617667578757562
