Ni Se Ru Cl
 1.0000000000000000
     3.5674583758313378   -0.0000000000000000    0.0000000000000000
    -1.7837291879156691    3.0895095804135115    0.0000000000000000
     0.0000000000000000    0.0000000000000000   38.3294037908683336
 Ni  Se  Ru  Cl 
   1   2   1   2
Cartesian
  0.6386464429659584  0.8721902406184947 22.0840628468515305
  2.4223756308816267  1.9020267674229983 23.3294037908683407
  0.6386464429659581  2.9318632942275018 20.8387219033733757
  0.7085393587039841  0.8469875561921463 16.2273761390970321
  2.4922685466196541  1.8768240829966498 17.4547522887126298
  0.7085393587039854  2.9066606098011532 15.0000000000000000
