Pb I  Se Cd
 1.0000000000000000
     4.4775465348531789   -0.0000000000000000    0.0000000000000000
    -2.2387732661548778    3.8788921243898491    0.0000000000000000
     0.0000000000000000    0.0000000000000000   41.5387194475192416
 Pb  I   Se  Cd 
   1   2   2   2
Cartesian
 -0.4830895367418231  1.4777965809937712 24.5076229194699806
  1.7556837311086706  2.7707606224570545 26.5387194475192416
  1.7556837311086706  2.7707606224570545 22.4765263914207267
  1.7052255641185396  1.1223733950589749 15.0000000000000018
  1.7055846570777726  3.7073517846244011 18.5885916162562417
  1.7048241962070547  1.1225801836679632 17.8903171033845112
  1.7059879874383277  3.7071444026047775 15.6980628372997124
