In S  Hg Cl
 1.0000000000000000
     3.9542648257602955    0.0000000000000000    0.0000000000000000
    -1.9771324128801480    3.4244937923996623    0.0000000000000000
     0.0000000000000000    0.0000000000000000   42.0745922034706581
 In  S   Hg  Cl 
   2   2   1   2
Cartesian
  2.1950438140709108  1.4843902352386706 16.1777227309346578
  2.1950438140709108  1.4843902352386706 18.9966802391880591
  0.2179114011907632  2.6258881660385578 15.0000000000000000
  0.2179114011907632  2.6258881660385578 20.1744029701158176
  0.0142030718141668  0.6713769683573417 25.6149879148863135
  1.9913354846943170  1.8128748991572297 27.0745922034706581
  0.0142030718141674  2.9543728299571175 24.1553836263019903
