Pb Te Br Ag
 1.0000000000000000
     4.3789622888718469   -0.0000000000000000    0.0000000000000000
    -2.1894811431695294    3.7947200769177520    0.0000000000000000
    -0.0000000000000000    0.0000000000000000  -39.3438999871637094
 Pb  Te  Br  Ag 
   1   1   2   2
Cartesian
  2.4775531238676951  1.7819707958977860 -22.6593931051172319
  0.2880719798539031  3.0468774882037031 -24.3438999871637094
  1.9024313255225846  0.7387953367472471 -18.8414998721338058
  1.9052436623002833  3.2659831336615075 -15.0000000000000000
  1.9013092158035758  0.7395685029014808 -16.0164839579147937
  1.9063719225073286  3.2652007029887464 -17.8241971258848473
