Sn I  Se Cd
 1.0000000000000000
     4.4360942454941847   -0.0000000000000000    0.0000000000000000
    -2.2180471214753812    3.8429933887599370    0.0000000000000000
     0.0000000000000000    0.0000000000000000   40.9976033159410704
 Sn  I   Se  Cd 
   1   2   2   2
Cartesian
 -0.5302638148541993  1.6393791983205144 17.0138547965808051
  1.6877833083167966  2.9203769945738265 19.0277095931616067
  1.6877833083167966  2.9203769945738265 15.0000000000000000
  1.3460404673568922  0.8105197352138582 22.4090116996848288
  1.3463962359084374  3.3715744236707774 25.9976033159410704
  1.3456428152345519  0.8107246100161800 25.2993288030693400
  1.3467958323118607  3.3713689609497726 23.1070745369845412
