I  Hg Cd I 
 1.0000000000000000
     4.3899608990424701   -0.0000000000000011    0.0000000000000000
    -2.1949804482486961    3.8177165438809424    0.0000000000000000
     0.0000000000000035    0.0000000000000000   42.9251347593464772
 I   Hg  Cd  I  
   2   2   1   2
Cartesian
  1.2440655960305851 -0.3906216893312893 15.0000000000000018
  1.2536783631101631  4.6646924930822431 20.9242317454966695
  1.2621377221640204  2.1231817004363904 19.3041194247390813
  1.2409145341868522  2.1470828657947276 16.6206582552528559
  0.7546507539097436  0.3663662009166647 26.2046183375685722
  2.9496312038551586  1.6389383822103119 27.9251347593464772
  0.7546507547581027  2.9115105635039598 24.4841019157906565
