Br Pt Zr Te Zr
 1.0000000000000000
     3.7422228458898594    0.0000194514724014    0.0000000000000000
    -1.8710945703205408    3.2408897817458939    0.0000000000000000
     0.0000000000000002    0.0000000000000000  -44.5446092356274619
 Br  Pt  Zr  Te  Zr 
   2   2   1   2   1
Cartesian
 -0.2225363349540857  1.4881386520708919 -29.5446092356274619
  3.5195599308143084  1.4882994433052024 -25.2097579631712456
  1.6483691431381045  0.4078609140705731 -26.6523068793751250
  1.6484120445315116  2.5684229077307714 -28.1030674912326930
  0.5534990219826661  3.0015783685781705 -16.8381242416882095
  2.4245748485563730  1.9213417822607044 -21.3877247954669691
  0.5533896538206733  0.8411144871127354 -15.0000000000000000
  0.5533708783266729  3.0020964469083613 -19.5496024615368995
