Ca Cl Cd
 1.0000000000000000
     3.9389668909686075    0.0012519794577290    0.0000000000000000
    -1.9683902633813255    3.4182362917559246    0.0000000000000000
     0.0000000000000033    0.0000000000000000   41.2243178028213890
 Ca  Cl  Cd 
   1   4   2
Cartesian
 -0.4894941601873588  1.5823107996334471 16.6160803132927697
  1.4803536793312715  2.7225575498572412 18.2321606265855323
  1.4803536793312715  2.7225575498572412 15.0000000000000018
  1.0484798183822852 -0.3851014544235933 20.7131635579725142
  1.0608696284510364  4.1500572203825659 26.2243178028213890
  1.0611670687663464  1.8713253347031582 24.8052032184968567
  1.0482403929251078  1.8936287276516897 22.1321147418820985
