Br Hg Mg I 
 1.0000000000000000
     4.1933233461384845    0.0010674728082233    0.0000000000000000
    -2.0957295951044128    3.6380222944347755    0.0000000000000000
     0.0000000000000030    0.0000000000000000   36.2427337799151772
 Br  Hg  Mg  I  
   2   2   1   2
Cartesian
  1.2954835552488082 -0.2455908686024722 15.0000000000000018
  1.3061283081616530  4.5833623559887862 20.7696522731609861
  1.3106474039304419  2.1551027768143429 19.2178916173209444
  1.2915220105470349  2.1823488690038682 16.5512692941072146
  0.7070626085402308  0.2608705579106294 19.5684161232473137
  2.8040349742644151  1.4742563045943711 21.2427337799151772
  0.7076839938501169  2.6865745784698891 17.8940984665794467
