I  Hg I 
 1.0000000000000000
     4.4213277559101520   -0.0000000000000011    0.0000000000000000
    -2.2106638766825371    3.8448810387652257    0.0000000000000000
     0.0000000000000035    0.0000000000000000   42.9652053567402490
 I   Hg  I  
   2   3   2
Cartesian
  1.2520956447689635 -0.3948623115614192 15.0000000000000000
  1.2617770963409931  4.6964223402853973 20.9242317454966695
  1.2702968986510226  2.1368277386056258 19.3041194247390777
  1.2489220681615143  2.1608989697812238 16.6206582552528559
  0.7569713271657912  0.3709164537715743 26.2219548408304384
  2.9676352055450486  1.6525434666933156 27.9652053567402490
  0.7569713280141503  2.9341704796150583 24.4787043249206206
