Cl Ag I  In
 1.0000000000000000
     4.4395008159688842   -0.0000000000000000    0.0000000000000000
    -2.2197504054485293    3.8542552156147973    0.0000000000000000
    -0.0000000000000000    0.0000000000000000   43.3225523679631550
 Cl  Ag  I   In 
   2   2   2   2
Cartesian
  1.2684162855658763  0.9470827022035715 15.0000000000000000
  1.2638644601614670  3.5112908153736817 18.2868565417185991
  1.2638044954024275  0.9492656521356482 17.9775021923323379
  1.2685123880349152  3.5090889311859907 15.3080484603362663
  1.4885934355087422  0.8755166123146793 21.9700877950835221
  1.4886536146262568  3.4444601600964373 28.3225523679631550
  1.4878655400014815  0.8759557712019977 26.4638779684968206
  1.4893816439178202  3.4440214570226670 23.8295707962837504
