Br Cu In S  In
 1.0000000000000000
     3.9360687597222772    0.0000000000000000    0.0000000000000000
    -1.9680343787322312    3.4095495192642766    0.0000000000000000
    -0.0000000000000000    0.0000000000000000   42.4734245497447134
 Br  Cu  In  S   In 
   2   2   1   2   1
Cartesian
  1.2320829081337350  0.1410003946840933 15.0000000000000000
  1.2329975773563651  2.4130877209378521 18.6331282326220524
  1.2317368988570663  0.1412271990279853 17.4857902901367552
  1.2333414889945717  2.4128617398818322 16.1476785051133049
  0.7671802775589075  3.0508955307651417 26.2986135443583109
  2.7352243988660607  1.9140522182417243 22.3059994693932637
  0.7669674909314551  0.7777060012295104 27.4734245497447063
  0.7669772279552717  3.0511076680877123 23.4808095006167328
