Hg Se Cd I 
 1.0000000000000000
     4.3941075496246649   -0.0000000000000000    0.0000000000000000
    -2.1970537748123329    3.8054087649359500    0.0000000000000000
     0.0000000000000000    0.0000000000000000  -37.4279276533732457
 Hg  Se  Cd  I  
   1   1   1   2
Cartesian
  2.9293684202834465  1.5101130987159352 -22.0339302710980789
  0.7323146454711140  2.7785826870279191 -22.4279276533732457
  0.6187878890845719  0.5480283750340662 -16.7205164217779014
  2.8158416638969039  1.8164979633460498 -14.9999999999999982
  0.6187878890845717  3.0849675516580328 -18.4410328435558171
