Hf Te Se Ti
 1.0000000000000000
     3.9755147011505003    0.0000000000000000    0.0000000000000000
    -1.9877573494209089    3.4438256424554279    0.0000000000000000
     0.0000000000000000    0.0000000000000000   40.6652096799445815
 Hf  Te  Se  Ti 
   1   2   2   2
Cartesian
 -0.5280806643399604  1.5887543999578071 16.8494380278571079
  1.4596766866200701  2.7366962807762834 18.6988761198817670
  1.4596766866200701  2.7366962807762834 15.0000000000000018
  1.2905099293678000  0.6468106670116327 22.1058782220773011
  1.2906163224013525  2.9421134627861458 25.6652096799445815
  1.2903185964852273  0.6468774628356201 24.7391963581459535
  1.2908077357198502  2.9420466933095826 23.0319628454920604
