Zr Br Al S 
 1.0000000000000000
     3.5731472871946957    0.0000000000000000    0.0000000000000000
    -1.7865736435973478    3.0944363221740572    0.0000000000000000
     0.0000000000000000    0.0000000000000000   42.2202030354977609
 Zr  Br  Al  S  
   1   2   2   2
Cartesian
 -0.5337895640402863  1.4364796763477081 16.8261924305408108
  1.2527840795570615  2.4679584504057268 18.6523848530272502
  1.2527840795570615  2.4679584504057268 15.0000000000000018
  1.8956912892464470  1.3218090946370360 23.5528548619348257
  1.8956912892464470  1.3218090946370360 26.1510224100548783
  0.1091176456490993  2.3532878686950549 22.4836742364919218
  0.1091176456490993  2.3532878686950549 27.2202030354977609
