Hg Br Pt Te
 1.0000000000000000
     4.0795280281844324    0.0000000000000000    0.0000000000000000
    -2.0397640140922166    3.5329749078583581    0.0000000000000000
     0.0000000000000000    0.0000000000000000   38.9278570407552351
 Hg  Br  Pt  Te 
   1   2   1   2
Cartesian
  0.7311352569966361  0.7277736594346769 16.5894075761307960
  2.7708992710888509  1.9054319620541296 18.1788151522615991
  0.7311352569966355  3.0830902646735820 15.0000000000000000
  0.7249890891228112  1.2724963403760774 22.5406428112017281
  2.7647531032150265  2.4501546429955301 23.9278570407552351
  0.7249890891228109  3.6278129456149824 21.1534285826046968
