Cl Pt Sn S 
 1.0000000000000000
     3.6636519040581876    0.0000000000000002    0.0000000000000000
    -1.8318259509919519    3.1733833697279685    0.0000000000000000
    -0.0000000000000002    0.0000000000000000   40.3847031090371615
 Cl  Pt  Sn  S  
   2   2   1   2
Cartesian
 -0.7019252031751140  2.0339806296967113 15.0000000000000000
  2.9606019305763400  2.0351524420869778 19.1833300419795165
  1.1296043028841372  0.9772296892694041 17.8345471777233797
  1.1298231251217994  3.0923826624378985 16.3507841280650084
  0.6509935853648503  0.2781840505875556 23.9071317062527413
  2.4828195377396582  1.3359785071635453 25.3847031090371615
  0.6509935860562783  2.3937729637395342 22.4295603034683175
