W  Te Ge S 
 1.0000000000000000
     3.5192085010399694   -0.0000000000000000    0.0000000000000000
    -1.7596042505199847    3.0477239631147679    0.0000000000000000
     0.0000000000000000    0.0000000000000000   38.9362397995797664
 W   Te  Ge  S  
   1   2   1   1
Cartesian
 -0.1058343321183886  1.2464401029785994 22.1242775863463024
  1.6537699184015962  2.2623480906835223 23.9362397995797664
  1.6537699184015962  2.2623480906835223 20.3123153731128383
  2.0178971073971135  1.7561084303085355 16.3610326690029417
  0.2582928568771292  2.7720164180134583 15.0000000000000000
