Pb Se Zn I 
 1.0000000000000000
     4.0888386639886560    0.0000000000000000    0.0000000000000000
    -2.0444193319943285    3.5410381549901926    0.0000000000000000
    -0.0000000000000000    0.0000000000000000   38.3532427947462082
 Pb  Se  Zn  I  
   1   1   1   2
Cartesian
  2.2098189696172437  1.3040316778662149 16.5482420467416986
  0.1653996376229152  2.4843777295296121 15.0000000000000000
  0.7636527111736187  0.0878735444171462 21.7258370262338296
  2.8080720431679462  1.2682195960805440 23.3532427947462118
  0.7636527111736180  2.4485656477439415 20.0984312577214403
