Mo Te Ti Se
 1.0000000000000000
     3.5213391016894877    0.0000000000000000    0.0000000000000000
    -1.7606695508447439    3.0495691174025708    0.0000000000000000
     0.0000000000000000    0.0000000000000000   35.2301213477344675
 Mo  Te  Ti  Se 
   1   2   1   2
Cartesian
  0.2943576848894264  1.2857566454311478 16.8051000000000030
  2.0550272357341699  2.3022796845653382 18.6101999999999990
  2.0550272357341699  2.3022796845653382 15.0000000000000018
  0.3592674465148014  1.4776915358418119 18.6101815205534606
  2.1199369973595452  2.4942145749760023 20.2301213477344675
  2.1199369973595452  2.4942145749760023 16.9902416933725107
