Cr Se Mo S 
 1.0000000000000000
     3.1971163177774859    0.0000000000000000    0.0000000000000000
    -1.5985581588887430    2.7687839500490647    0.0000000000000000
     0.0000000000000000    0.0000000000000000   40.2670772230811593
 Cr  Se  Mo  S  
   1   2   1   2
Cartesian
  0.2114011460521789  1.1222784278522049 16.5737644427049204
  1.8099593049409217  2.0452064112018928 18.1475288854098444
  1.8099593049409217  2.0452064112018928 15.0000000000000000
  0.3485013791346829  1.3329913326837386 23.7035208999053992
  1.9470595380234261  2.2559193160334270 25.2670772230811593
  1.9470595380234261  2.2559193160334270 22.1399645767296391
