Pb Te Br Hg
 1.0000000000000000
     4.2515875563923213    0.0010674728082233    0.0000000000000000
    -2.1248617002313308    3.6884805806460248    0.0000000000000000
     0.0000000000000033    0.0000000000000000   40.6174027553705486
 Pb  Te  Br  Hg 
   1   1   2   2
Cartesian
  2.4523845766558070  1.5625219397604997 16.6845068820464775
  0.3269014911145893  2.7916596423730997 15.0000000000000000
  1.0047386624903947 -0.4113977673476648 19.8477504822095661
  1.0155141313557237  4.4845217430450255 25.6174027553705486
  1.0201046607364315  2.0225878486092173 24.0656420995305069
  1.0007134322194327  2.0502118480948650 21.3990197763167771
