In S  In Se Zn
 1.0000000000000000
     3.9974019888717178    0.0000000000000000    0.0000000000000000
    -1.9987009932719166    3.4620149466992904    0.0000000000000000
     0.0000000000000000    0.0000000000000000   35.1674250803514354
 In  S   In  Se  Zn 
   1   2   1   2   2
Cartesian
  0.7883188032840773  3.1058792669198931 18.9926140749650472
  2.7870296909548253  1.9515424497615741 15.0000000000000000
  0.7881027009277710  0.7977103773151291 20.1674250803514425
  0.7881125896890012  3.1060946685667505 16.1748100312234691
  1.3432034623100058  0.1381557850957573 16.5453887716895096
  1.3433067411057098  2.4460349205366549 19.9586923623804893
  1.3431048257201283  0.1382096220022917 19.2010859532994260
  1.3434053488570801  2.4459810816846410 17.3033703737777458
