Ti I  Zr S 
 1.0000000000000000
     3.7255977821822279    0.0000000000000000    0.0000000000000000
    -1.8627988910911140    3.2264623236527727    0.0000000000000000
    -0.0000000000000000    0.0000000000000000   40.2191448478814948
 Ti  I   Zr  S  
   1   2   1   2
Cartesian
 -0.2389941839023274  1.0290715904611183 16.8143657812576208
  1.6238047071887864  2.1045590316787091 18.6287315661405444
  1.6238047071887864  2.1045590316787091 15.0000000000000018
  0.4612263490202126  0.9350327819195452 23.7732624051374302
  2.3240252401113262  2.0105202231371360 25.2191448478814948
  0.4612263490202125  3.0860076643547267 22.3273799623933016
