Ti Se Ge S 
 1.0000000000000000
     3.4694222127333436    0.0000000000000000    0.0000000000000000
    -1.7347111063666718    3.0046077726810942    0.0000000000000000
    -0.0000000000000000    0.0000000000000000   39.8604011752513827
 Ti  Se  Ge  S  
   1   2   1   2
Cartesian
 -0.3849179513778415  1.1046950524675292 16.6199398271809464
  1.3497931549888305  2.1062309766945608 18.2398796543619532
  1.3497931549888305  2.1062309766945608 15.0000000000000018
  0.4907167209503687  0.8934570302135652 23.4633920494148853
  2.2254278273170409  1.8949929544405963 24.8604011752513827
  0.4907167209503687  2.8965288786676275 22.0663829235781996
