Ge Br Ge Br S  Hf
 1.0000000000000000
     4.1976027223666419   -0.0506467540195987    0.0000000000000001
    -2.0550240424641708    3.6613795952647856    0.0000000000000001
    -0.0000000000000021    0.0000000000000000  -37.7658392378361043
 Ge  Br  Ge  Br  S   Hf 
   1   1   1   1   2   2
Cartesian
  0.8526795244332157  3.5133999757168537 -18.0293486901658682
 -1.2657816835459652  2.3242675490173497 -15.0000000000000036
 -1.2612917632634550  2.3265467103401143 -17.3501246890710696
 -3.3449643030223153  3.5613861775324729 -20.3794909095427315
  3.9807523320444447 -0.9198983906637090 -22.7658392378361079
  4.0102589922614840  1.5036137316509426 -19.4403525912537347
  3.9808793395762416 -0.9200258699987650 -20.1612581025378219
  4.0101319747341604  1.5037412163680428 -22.0448428923920545
