Ca Br Cd
 1.0000000000000000
     4.1115359166185996    0.0014024937248978    0.0000000000000000
    -2.0545433528074688    3.5665123727023120    0.0000000000000000
     0.0000000000000032    0.0000000000000000   41.5873079662939631
 Ca  Br  Cd 
   1   4   2
Cartesian
 -0.5405973620052181  1.6670047566224668 16.7571598031843862
  1.5155787981380255  2.8567772100065025 18.5143196063686446
  1.5155787981380251  2.8567772100065025 14.9999999999999982
  1.0891167610711976 -0.4278534992861741 20.8644587563861563
  1.1024334700209300  4.3038711484317185 26.5873079662939631
  1.1022516417657762  1.9263715158426278 25.0655179601084512
  1.0888841071958095  1.9499812724952239 22.3859846380182574
