Cl Pd Pt Se
 1.0000000000000000
     3.7083000074503492   -0.0000057074165551    0.0000000000000000
    -1.8541549472298757    3.2114559649630010    0.0000000000000000
     0.0000000000000001   -0.0000000000000000  -39.2459009527200280
 Cl  Pd  Pt  Se 
   2   2   1   2
Cartesian
 -0.4515513630509699  2.1477264307202235 -19.0602727285529099
  3.2568012169610157  2.1476313104147047 -14.9999999999999982
  1.4023789222681806  1.0770222285409539 -16.2782036948100597
  1.4023715381248743  3.2180165276488619 -17.7840570374770763
  0.6257388460095881  0.1695282941070979 -22.9360922248226480
  2.4798872018998628  1.2400098108170614 -21.6262835030149034
  0.6257355503397871  2.3104970349435803 -24.2459009527200351
