Ga O  B  P 
 1.0000000000000000
     3.1743633657073058    0.0000000000000000    0.0000000000000000
    -1.5871816828536529    2.7490793155451989    0.0000000000000000
     0.0000000000000000    0.0000000000000000  -38.0003924994571420
 Ga  O   B   P  
   2   2   1   1
Cartesian
  2.1219401786572418  1.1521060596266015 -18.2624596435107485
  2.1219401786572418  1.1521060596266015 -15.7491739274520324
  0.5347584958035894  2.0684658314750011 -19.0116335709628004
  0.5347584958035894  2.0684658314750011 -15.0000000000000018
  0.2820923997840303  2.2425234481357919 -23.0003924994571420
  1.8692740826376837  1.3261636762873925 -23.0003924994571420
