Br Hg Tl Se Tl
 1.0000000000000000
     4.2042035504025463    0.0010674728082233    0.0000000000000000
    -2.1011696972364442    3.6474448277258147    0.0000000000000000
     0.0000000000000036    0.0000000000000000   44.1982972136748486
 Br  Hg  Tl  Se  Tl 
   2   2   1   2   1
Cartesian
  1.0328944783894827 -0.9639790553413314 15.0000000000000000
  1.0435636410773395  3.8774793909829746 20.7696522731609825
  1.0480960762921732  1.4429315015937378 19.2178916173209409
  1.0289210411039353  1.4702481638391647 16.5512692941072110
  0.6583912811821210  3.0298176112400257 27.9141846172456312
  2.7600343891559129  1.8138119897145755 23.7353846235174117
  0.6576661484081099  0.5973440658711784 29.1982972136748486
  0.6581399245858586  3.0302338381138578 25.0194938765668482
