Ge Br Ge Br In Se In
 1.0000000000000000
     4.1659648635440760   -0.0506467540195987    0.0000000000000001
    -2.0392051142375847    3.6334477760117272    0.0000000000000001
     0.0000000000000021   -0.0000000000000000   37.0130084494527409
 Ge  Br  Ge  Br  In  Se  In 
   1   1   1   1   1   2   1
Cartesian
  0.0732069796053562  3.6165579687030620 18.9836597592868799
 -2.0293973315498630  2.4367553366001951 22.0130084494527409
 -2.0249410406525694  2.4390165760803617 19.6628837603816748
 -4.0927989206551647  3.6645646094547097 16.6335175399100166
  3.2457262493189298  1.1824697361680840 19.0853122328591098
  5.3141202742794071 -0.0459287131537705 15.0000000000000018
  3.2163825777628530 -1.2231671695310338 20.3557279819780419
  3.2455812743758443  1.1826889536314145 16.2704079646881183
