Sn O  Ga N 
 1.0000000000000000
     3.2439769571347696    0.0000000000000000    0.0000000000000000
    -1.6219884785673848    2.8093664541700534    0.0000000000000000
     0.0000000000000000    0.0000000000000000  -36.0092157683253475
 Sn  O   Ga  N  
   1   2   1   1
Cartesian
  0.5002290741711766  0.3752076772166619 -16.0089623246724102
  2.1222175527385616  1.3116631619400130 -14.9999999999999982
  0.5002290741711766  2.2481186466633640 -17.0179246493448275
  0.7360708227861051  2.1290330433808053 -21.0092157683253511
  2.3580593013534905  1.1925775586574545 -21.0092157683253511
