Br Cd Tl Se Tl
 1.0000000000000000
     4.1666784282738654    0.0014024937248978    0.0000000000000000
    -2.0821146086351017    3.6142671886242521    0.0000000000000000
     0.0000000000000034    0.0000000000000000   44.3555430945343261
 Br  Cd  Tl  Se  Tl 
   2   2   1   2   1
Cartesian
  1.1926670131959689 -0.7866858082104050 15.0000000000000018
  1.2061405357299464  4.0083830832726308 20.7228492099078068
  1.2059672152244458  1.5990555088357239 19.2010592037222949
  1.1924202911348560  1.6229813938699709 16.5215258816321011
  0.6686137621677688  3.2059726506861468 28.0714304981051015
  2.7513980755962399  2.0011428489565475 23.8926305043768856
  0.6676944968167592  0.7955102636207116 29.3555430945343261
  0.6683646834161805  3.2063850905558748 25.1767397574263256
