Br Ag I  Cd
 1.0000000000000000
     4.4174608063865772    0.0008383076656587    0.0000000000000000
    -2.2079984222099469    3.8353158434473533    0.0000000000000000
     0.0000000000000033    0.0000000000000000   42.5636717616855265
 Br  Ag  I   Cd 
   2   2   2   2
Cartesian
  1.3014904063267461  0.8989441464027290 15.0000000000000000
  1.3048149483320854  3.4534473835026001 18.8414998721338058
  1.3003585804963740  0.8997254544433948 17.8250159142190121
  1.3059529769366602  3.4526567119860672 16.0173027462489586
  1.2008268435325729 -0.2541984936603278 21.6534641067978271
  1.2124996335941873  4.8277937201681720 27.5636717616855265
  1.2177467683594918  2.2733481177213259 25.9521061630625667
  1.1986929770902723  2.2980332340020886 23.2650818699967665
