Pb Se Ti
 1.0000000000000000
     4.0597407133794139    0.0000000000000000    0.0000000000000000
    -2.0298703555353659    3.5167675087051178    0.0000000000000000
    -0.0000000000000000    0.0000000000000000  -39.0326457789524071
 Pb  Se  Ti 
   1   3   2
Cartesian
  2.3013077852738348  1.2773297973766236 -22.4844037322107013
  0.2714374289689087  2.4495856336116626 -24.0326457789524071
  1.5431613273636646  1.4058300452862502 -18.5593314578672803
  1.5432699744440053  3.7497484467604041 -15.0000000000000000
  1.5429659408661713  1.4058982558775819 -15.9260133217986279
  1.5434654430815542  3.7496802630745467 -17.6332468344525211
