F  Pt Pb O 
 1.0000000000000000
     3.3971176771604004    0.0000585085648160    0.0000000000000000
    -1.6985081072894621    2.9421452481629360    0.0000000000000000
    -0.0000000000000012   -0.0000000000000000   39.2628971303389420
 F   Pt  Pb  O  
   2   2   1   2
Cartesian
 -0.6294999046835077  1.6329103648863366 15.0000000000000036
  2.7673909780302730  1.6336167606986334 18.7933056562285969
  1.0688890614460076  0.6525867528217447 17.6544166225755887
  1.0690241627828267  2.6138643999565736 16.1389253694520818
  0.6007889759491085 -0.0751398737361662 23.2042779741942624
  2.2993647249595544  0.9056142146946897 24.2628971303389420
  0.6008227968096005  1.8863097945607294 22.1456588180495828
