Zr Te Mg Br
 1.0000000000000000
     3.8161076615756930   -0.0000000000000000    0.0000000000000000
    -1.9080538307878467    3.3048461785009797    0.0000000000000000
     0.0000000000000000    0.0000000000000000   42.7896893237343221
 Zr  Te  Mg  Br 
   2   2   1   2
Cartesian
  2.1935754041686830  1.4366096239806763 23.2926047065732575
  2.1935754041686830  1.4366096239806763 25.9714957215160851
  0.2855215733808364  2.5382250168143363 21.4744112698234346
  0.2855215733808365  2.5382250168143363 27.7896893237343292
  0.1943712088675783  0.5836030224241493 16.5070256484157625
  2.1024250396554232  1.6852184152578102 18.0140512968315214
  0.1943712088675781  2.7868338080914712 15.0000000000000000
