Br Ag Te Zn
 1.0000000000000000
     4.3816874119639166   -0.0000000000000000    0.0000000000000000
    -2.1908437034790689    3.7976056367220936    0.0000000000000000
    -0.0000000000000000    0.0000000000000000   40.7628763074774483
 Br  Ag  Te  Zn 
   2   2   2   2
Cartesian
  1.3156073593205662  0.9278195331899274 15.0000000000000000
  1.3184214470993141  3.4569290401057122 18.8414998721338094
  1.3144845512886232  0.9285932872708413 17.8250159142190157
  1.3195504094468724  3.4561460144613974 16.0173027462489586
  1.2678465686438651  1.0074310751753850 22.0031289413300897
  1.2679550328063254  3.5388854570425159 25.7628763074774483
  1.2677106972052776  1.0075186761031418 24.8140874363363615
  1.2680906706230737  3.5387974873807089 22.9522691483350201
