Al Se Pb S 
 1.0000000000000000
     3.8128604482373190   -0.0000000000000000    0.0000000000000000
    -1.9064302241186595    3.3020340092584393    0.0000000000000000
    -0.0000000000000000    0.0000000000000000   41.9943237420252871
 Al  Se  Pb  S  
   2   2   1   2
Cartesian
  2.0855210926720611  1.4526837064125606 16.1674793328362725
  2.0855210926720611  1.4526837064125606 18.7553318157724647
  0.1790908685534020  2.5533617094987076 15.0000000000000000
  0.1790908685534020  2.5533617094987076 19.9228111486087727
  0.0703219915535766  0.6544794651793019 25.4523333839876535
  1.9767522156722359  1.7551574682654485 26.9943237420252871
  0.0703219915535766  2.8558354713515945 23.9103430259500200
