Br Cd Pt Te
 1.0000000000000000
     4.0600243124051598    0.0014024937248978    0.0000000000000000
    -2.0287875507007489    3.5219020148637838    0.0000000000000000
     0.0000000000000033    0.0000000000000000   42.1009601489868288
 Br  Cd  Pt  Te 
   2   2   1   2
Cartesian
  1.1444306756874274 -0.3553816064630830 15.0000000000000018
  1.1576008965820388  4.3171697552349650 20.7228492099078068
  1.1574111207775304  1.9694023255176394 19.2010592037222949
  1.1442111636656356  1.9927167695414236 16.5215258816321011
  0.7296086972060207  0.2862715634758275 25.7137459194333147
  2.7600290552425437  1.4611738975803541 27.1009601489868288
  0.7304251008739080  2.6346737379599827 24.3265316908362905
