Br Pt Zr S 
 1.0000000000000000
     3.7192167662726181    0.0000194514724014    0.0000000000000000
    -1.8595915305119199    3.2209615879601210    0.0000000000000000
    -0.0000000000000002   -0.0000000000000000   40.5374164436406517
 Br  Pt  Zr  S  
   2   2   1   2
Cartesian
 -0.7497726024157463  1.7929663963187377 15.0000000000000018
  2.9693183619170864  1.7931263184550494 19.3348512724562198
  1.1096310674212986  0.7193313134983254 17.8923023562523369
  1.1096737741383873  2.8666080763165449 16.4415417443947689
  0.7939269913927365  0.2016643235619121 24.0915340008965870
  2.6535409920705080  1.2753311538635532 25.5374164436406517
  0.7939382264756624  2.3489785326927928 22.6456515581524584
