In S  Tl S 
 1.0000000000000000
     3.9859937519363475    0.0000000000000000    0.0000000000000000
    -1.9929968759681738    3.4519718485029243    0.0000000000000000
     0.0000000000000000    0.0000000000000000   44.4458010371547587
 In  S   Tl  S  
   2   2   2   2
Cartesian
  2.1816828960291721  1.2988989610817243 16.1777227309346543
  2.1816828960291721  1.2988989610817243 18.9966802391880591
  0.1886860200609984  2.4495562439160321 15.0000000000000000
  0.1886860200609984  2.4495562439160321 20.1744029701158141
  2.3135396079570798  1.5386857767214277 25.3620412288994785
  2.3135396079570798  1.5386857767214277 28.2479587206896170
  0.3205427319889060  2.6893430595557355 24.1641989124347987
  0.3205427319889060  2.6893430595557355 29.4458010371547658
