I  Ag I  Cd
 1.0000000000000000
     4.4879448639148407    0.0008383076656587    0.0000000000000000
    -2.2432404509338166    3.8963595409528473    0.0000000000000000
     0.0000000000000033    0.0000000000000000   42.5752657602246103
 I   Ag  I   Cd 
   2   2   2   2
Cartesian
  1.2543944705624417  1.1372348242415327 15.0000000000000018
  1.2546259694891397  3.7337232424808748 19.1467191956345957
  1.2526906178411943  1.1381992728073347 17.9021344705961027
  1.2563448823326786  3.7327521278793907 16.2436090111161775
  1.5614515737376362 -0.1836490775821568 21.6650581053369109
  1.5732951383659313  4.9792203271000171 27.5752657602246103
  1.5786337732313169  2.3841220541239951 25.9637001616016470
  1.5592758885798821  2.4092000785573049 23.2766758685358468
