Ge Cl Cd I 
 1.0000000000000000
     4.2784074054548764   -0.0000000000000002    0.0000000000000000
    -2.1392037027274382    3.7052095008644699    0.0000000000000000
     0.0000000000000010    0.0000000000000017   42.4176160091548269
 Ge  Cl  Cd  I  
   2   2   1   2
Cartesian
  1.3310446371132496  0.7467831844032435 17.1900136315555017
  1.3310446408501782  3.2169228516462249 17.8618516334689801
  1.3310446371132496  0.7467831844032431 15.0000000000000000
  1.3310446408501782  3.2169228516462249 20.0518652577973953
  0.6985518939422213  0.3106467555286249 25.6970995873769255
  2.8377555966696586  1.5457165891501148 27.4176160091548269
  0.6985518939422213  2.7807864227716053 23.9765831655990098
