Zr Te Mg Br
 1.0000000000000000
     3.9030277882193078   -0.0000000000000000    0.0000000000000000
    -1.9515138941096541    3.3801212162745111    0.0000000000000000
     0.0000000000000000    0.0000000000000000   40.6291452541882663
 Zr  Te  Mg  Br 
   1   2   1   2
Cartesian
 -0.7304098169927563  1.5583921965149254 16.8615645620742072
  1.2211040771168977  2.6850992686064288 18.7231291241485991
  1.2211040771168977  2.6850992686064288 15.0000000000000000
  0.4746657816082221  0.9801806905712878 24.1221196057725038
  2.4261796757178740  2.1068877626627929 25.6291452541882592
  0.4746657816082219  3.2335948347542978 22.6150939573567413
