Pb O  Cl Pd
 1.0000000000000000
     3.6306268490698366   -0.0000057074165551    0.0000000000000000
    -1.8153183680396192    3.1441890366133043    0.0000000000000000
     0.0000000000000001   -0.0000000000000000  -37.7882187390732582
 Pb  O   Cl  Pd 
   1   1   2   2
Cartesian
  2.0669168745888662  1.3295744096332935 -21.8453783371022467
  0.2516018022190481  2.3776393243099134 -22.7882187390732582
 -0.8855230614057336  1.4763798063710021 -19.0602727285529099
  2.7451552590564141  1.4762865589014691 -14.9999999999999982
  0.9295752814140970  0.4281024584596750 -16.2782036948100597
  0.9295679829061476  2.5242516033257050 -17.7840570374770763
