Zr Te Pb Se
 1.0000000000000000
     4.0001523328938102    0.0000000000000000    0.0000000000000000
    -2.0000761664469051    3.4642335392936179    0.0000000000000000
     0.0000000000000000    0.0000000000000000  -39.2017633277915891
 Zr  Te  Pb  Se 
   1   2   1   1
Cartesian
 -0.1010605313503882  1.3868156591867720 -16.8615645620743919
  1.8990156350965171  2.5415601722846444 -15.0000000000000018
  1.8990156350965171  2.5415601722846444 -18.7231291241485991
  2.2610888592175886  1.8888076552148418 -22.6535212810498905
  0.2610126927706839  3.0435521683127140 -24.2017633277915891
