Sn Te Br Cd
 1.0000000000000000
     4.1385021920033900    0.0014024937248978    0.0000000000000000
    -2.0680264904998644    3.5898658522309885    0.0000000000000000
    -0.0000000000000031   -0.0000000000000000  -40.4852822087884263
 Sn  Te  Br  Cd 
   1   1   2   2
Cartesian
  2.8013659955844048  1.6372881248071625 -23.7991216582237861
  0.7325231014166530  2.8334425776425256 -25.4852822087884263
  1.0648539281006981 -0.2382241602714559 -20.7228492099077997
  1.0782473234067438  4.5244776459061589 -15.0000000000000000
  1.0780696556860521  2.1314132336391842 -16.5217900061855048
  1.0646143944775612  2.1551775861696369 -19.2013233282757056
