Ge S  F  Pt
 1.0000000000000000
     3.4401810837783962    0.0000585085648160    0.0000000000000000
    -1.7200398105984598    2.9794392522676190    0.0000000000000000
     0.0000000000000012    0.0000000000000000  -37.7925547497780272
 Ge  S   F   Pt 
   1   1   2   2
Cartesian
  2.2222500076249223  1.7824222663998228 -21.4315220807750784
  0.5021763761659707  2.7755491809674235 -22.7925547497780201
 -0.7840952190675046  1.7944136143103975 -18.7933056562285969
  2.6558561951732451  1.7951282225707759 -15.0000000000000036
  0.9358235112736595  0.8016633825150790 -16.1388890336530118
  0.9359598965253977  2.7878015185491289 -17.6543802867765223
