Ge S  Ru Cl
 1.0000000000000000
     3.5407549258945599   -0.0000000000000000    0.0000000000000000
    -1.7703774629472802    3.0663837143995756    0.0000000000000000
     0.0000000000000000    0.0000000000000000   37.4093086199735083
 Ge  S   Ru  Cl 
   1   1   1   2
Cartesian
  2.0029333602546227  0.7670465380117581 16.3610326690029417
  0.2325558973073431  1.7891744428116163 15.0000000000000000
  0.8949580750312426  0.0860524114919624 21.1819324703579142
  2.6653355379785237  1.1081803162918209 22.4093086199735083
  0.8949580750312439  2.1303082210916791 19.9545563312608785
