Br Pt Cl Pd
 1.0000000000000000
     3.7122507716157069    0.0000137440558463    0.0000000000000000
    -1.8561134766881655    3.2149028132815847    0.0000000000000000
    -0.0000000000000003   -0.0000000000000000   40.6487725611400350
 Br  Pt  Cl  Pd 
   2   2   2   2
Cartesian
 -0.4995436940393531  1.6801658523192022 15.0000000000000000
  3.2125815110460585  1.6803198028754349 19.3348512724562163
  1.3563789991864736  0.6085484357495108 17.8923023562523369
  1.3564183513453281  2.7517841833997094 16.4415417443947689
 -0.4651867988906691  1.0780202564682781 21.5884998325871251
  3.2471166008272947  1.0779444916734942 25.6487725611400350
  1.3907130139906205  0.0061733539727333 24.3705688663299753
  1.3907168607086087  2.1494720632714390 22.8647155236629551
