Ge F  Mg I 
 1.0000000000000000
     4.2288493685114616   -0.0000000000000000    0.0000000000000000
    -2.1144246842557308    3.6622909819094129    0.0000000000000000
     0.0000000000000013    0.0000000000000022   41.4156568694599727
 Ge  F   Mg  I  
   2   2   1   2
Cartesian
  1.2960431011172595  0.7440183062447949 16.7809067055787082
  1.2960431048109025  3.1855456275177358 17.3739865908562336
  1.2960431011172595  0.7440183062447944 15.0000000000000000
  1.2960431048109025  3.1855456275177363 19.1548933276439897
  0.7067228023981937  0.1540362972839878 24.7413392127921092
  2.8211474866539241  1.3747999579204597 26.4156568694599727
  0.7067228023981937  2.5955636185569317 23.0670215561242422
