Sn Te I  Cu
 1.0000000000000000
     4.1748828071016781   -0.0000000000000000    0.0000000000000000
    -2.0874414023578578    3.6155545667066367    0.0000000000000000
    -0.0000000000000000    0.0000000000000000   39.1329384244869658
 Sn  Te  I   Cu 
   1   1   2   2
Cartesian
  2.5623427550993774  1.9592999560600124 16.6861605505646438
  0.4749013519461982  3.1644848116288911 15.0000000000000000
  1.3631266371206396  0.6664627634700730 20.2771354938469628
  1.3631266170415470  3.0768324866596797 24.1329384244869658
  1.3631266371206401  0.6664627634700733 22.8984345256069624
  1.3631266170415466  3.0768324866596792 21.5142346483269620
