Ga S  Pd Se
 1.0000000000000000
     3.6900925443848771    0.0000000000000000    0.0000000000000000
    -1.8450462721924386    3.1957138857528600    0.0000000000000000
     0.0000000000000000    0.0000000000000000   41.2676290018341945
 Ga  S   Pd  Se 
   2   2   1   2
Cartesian
  2.0106038085630611  1.4650699649372187 16.0940275853641523
  2.0106038085630611  1.4650699649372187 18.5727461466075070
  0.1655575363706224  2.5303079268548387 15.0000000000000000
  0.1655575363706224  2.5303079268548387 19.6667737319714959
 -0.1568049466734932  0.7203172907112669 24.9545704775027843
  1.6882413255189450  1.7855552526288869 26.2676290018341945
 -0.1568049466734932  2.8507932145465071 23.6415121938737087
