Ca I  Ge Cl
 1.0000000000000000
     4.3090595312144782   -0.0000000000000002    0.0000000000000000
    -2.1545297656072391    3.7317550204522800    0.0000000000000000
     0.0000000000000010    0.0000000000000017   42.3888943623517136
 Ca  I   Ge  Cl 
   1   2   2   2
Cartesian
 -0.2971595181892046  1.5544378919643174 16.9490723290323402
  1.8573702474180347  2.7983562321150774 18.8981446580646519
  1.8573702474180342  2.7983562321150770 15.0000000000000018
  1.2541944895108619  0.8468559740908304 24.5270427361098058
  1.2541944932745632  3.3346926543923523 25.1988807380232842
  1.2541944895108619  0.8468559740908299 22.3370291045543041
  1.2541944932745632  3.3346926543923523 27.3888943623517065
