Ti Se Zn Cl
 1.0000000000000000
     3.5470804425565574    0.0000000000000000    0.0000000000000000
    -1.7735402212782789    3.0718617725209274    0.0000000000000000
     0.0000000000000000    0.0000000000000000   39.8266025215530561
 Ti  Se  Zn  Cl 
   1   2   1   2
Cartesian
 -0.5049260981738101  1.1780081823956621 16.6199398271809429
  1.2686141231044687  2.2019621065693045 18.2398796543619497
  1.2686141231044687  2.2019621065693045 15.0000000000000000
  0.5258183942444707  0.9396559618702575 23.4591355329709401
  2.2993586155227486  1.9636098860438995 24.8266025215530561
  0.5258183942444707  2.9875638102175417 22.0916685443888028
