Hf Te Al Se
 1.0000000000000000
     3.8435258153580625   -0.0000000000000000    0.0000000000000000
    -1.9217629076790312    3.3285909962013802    0.0000000000000000
    -0.0000000000000000    0.0000000000000000   42.3034457751885427
 Hf  Te  Al  Se 
   1   2   2   2
Cartesian
 -0.2026312419225529  1.1853558987737713 16.8494380278571043
  1.7191316657564784  2.2948862308408979 18.6988761198817670
  1.7191316657564784  2.2948862308408979 14.9999999999999982
  2.0887873536614139  1.3766925532206187 23.5481139594160496
  2.0887873536614139  1.3766925532206187 26.1359664423522418
  0.1670244459823827  2.4862228852877455 22.3806346265797771
  0.1670244459823827  2.4862228852877455 27.3034457751885498
