Cr Te Ti Br
 1.0000000000000000
     3.4711058646658195    0.0000000000000000    0.0000000000000000
    -1.7355529323329097    3.0060658580257491    0.0000000000000000
     0.0000000000000000    0.0000000000000000   40.7955546201969241
 Cr  Te  Ti  Br 
   1   2   1   2
Cartesian
  0.1316710001089623  1.4277850296908077 16.7062363127964844
  1.8672239324418720  2.4298069823660571 18.4124726255929652
  1.8672239324418720  2.4298069823660571 15.0000000000000000
  0.3329804324945032  1.4357878949185452 24.1017011612167522
  2.0685333648274131  2.4378098475937948 25.7955546201969241
  2.0685333648274131  2.4378098475937948 22.4078477028889154
