Pt O  Zn F 
 1.0000000000000000
     3.1463421345158356    0.0000000000000000    0.0000000000000000
    -1.5731710672579178    2.7248122174880693    0.0000000000000000
     0.0000000000000000    0.0000000000000000   37.4898041177924881
 Pt  O   Zn  F  
   1   2   1   2
Cartesian
  0.5095302674351312  0.7111764815777485 15.9429177774534683
  2.0827013346930490  1.6194472207404382 16.8858355549069401
  0.5095302674351312  2.5277179599031276 14.9999999999999964
  0.6073916510539679  0.6825026324042824 21.4940372134480029
  2.1805627183118848  1.5907733715669718 22.4898041177924881
  0.6073916510539681  2.4990441107296615 20.4982703091035035
