Ba Cl Sr I 
 1.0000000000000000
     4.5845100816213886   -0.0000000000000000    0.0000000000000000
    -2.2922550408106943    3.9703021945899932    0.0000000000000000
     0.0000000000000000    0.0000000000000000   41.3854403755609965
 Ba  Cl  Sr  I  
   1   2   1   2
Cartesian
  0.1638988441683638  1.5600660661213823 16.6919307837616309
  2.4561538849790576  2.8835001309847130 18.3838615675232617
  2.4561538849790576  2.8835001309847130 15.0000000000000000
  0.2867930466669102  1.7103527716369544 24.3825553648818421
  2.5790480874776045  3.0337868365002851 26.3854403755609965
  2.5790480874776045  3.0337868365002851 22.3796703542028403
