Se Ti Mg Br
 1.0000000000000000
     3.9626161687049124    0.0000000000000000    0.0000000000000000
    -1.9813080831981151    3.4326551856860110    0.0000000000000000
     0.0000000000000000    0.0000000000000000   40.4560372975019149
 Se  Ti  Mg  Br 
   2   2   1   2
Cartesian
  1.2346409671800802  0.6101322598404810 15.0000000000000000
  1.2347470150246005  2.8979899688670367 18.5593314578672803
  1.2344502550758416  0.6101988390042941 17.6333181360686559
  1.2349378073037900  2.8979234159651868 15.9260846234147593
  0.5831074219302635 -0.0936164971969078 23.9490116490861453
  2.5644155066674985  1.0506018980317635 25.4560372975019042
  0.5831074226998242  2.1948202932604350 22.4419860006703829
