Br Ag Se Hf
 1.0000000000000000
     4.3498210796188781   -0.0000000000000000    0.0000000000000000
    -2.1749105373247519    3.7701869235214538    0.0000000000000000
     0.0000000000000000    0.0000000000000000   40.6057652098504036
 Br  Ag  Se  Hf 
   2   2   2   2
Cartesian
  1.2443000020886679  1.0624488189798749 15.0000000000000000
  1.2470936240860917  3.5732981549204057 18.8414998721338058
  1.2431853598089895  1.0632169865562222 17.8250159142190121
  1.2482143759234083  3.5725207827213468 16.0173027462489586
  1.2195706380834095  0.8721566890683057 21.9144886803145376
  1.2198399688237398  3.3850309010354924 25.6057652098504036
  1.2196331358565460  0.8720879865195832 24.6831370315021488
  1.2197775476807076  3.3850996570952163 22.8375557856932723
