Br Pt Hg F 
 1.0000000000000000
     3.7076493248385258    0.0000194514724014    0.0000000000000000
    -1.8538078097948718    3.2109438898214067    0.0000000000000000
    -0.0000000000000001   -0.0000000000000000   39.6412445382910832
 Br  Pt  Hg  F  
   2   2   1   2
Cartesian
 -0.7885400031521186  1.8782844686021392 15.0000000000000000
  2.9189839110158498  1.8784439538518216 19.3348512724562163
  1.0650805651921431  0.8079885802489833 17.8923023562523369
  1.0651231740261102  2.9485869941054874 16.4415417443947689
  0.6417989937369402  0.2506158371631688 23.6125723859308678
  2.4956292736976566  1.3209434347519051 24.6412445382910832
  0.6418102288198646  2.3912515808682402 22.5839002335706880
