Br Hg Se Zn
 1.0000000000000000
     4.1272961695204140    0.0010674728082233    0.0000000000000000
    -2.0627160056314358    3.5810043573413051    0.0000000000000000
     0.0000000000000035    0.0000000000000000   42.2407906657458483
 Br  Hg  Se  Zn 
   2   2   2   2
Cartesian
  1.2205812155367306 -0.2127965725183611 15.0000000000000018
  1.2310778378005731  4.5404846513389909 20.7696522731609825
  1.2355159815587107  2.1502770975781664 19.2178916173209409
  1.2166918424744420  2.1770961539712861 16.5512692941072110
  1.3827168271112102  0.9618694973494031 23.8274870750548615
  1.3834448119768745  3.3494262416387945 27.2407906657458412
  1.3826149998543205  0.9619251665896658 26.4831842566647779
  1.3835466094576361  3.3493705703781855 24.5854686771431012
