Ca I  Br Ag
 1.0000000000000000
     4.4098535267400143   -0.0000000000000000    0.0000000000000000
    -2.2049267621036135    3.8214726736659417    0.0000000000000000
     0.0000000000000000    0.0000000000000000   41.1726838435698994
 Ca  I   Br  Ag 
   1   2   2   2
Cartesian
 -0.2842531479229214  1.5593976204926188 16.9490723290323331
  1.9206736158692170  2.8332218450479321 18.8981446580646448
  1.9206736158692170  2.8332218450479321 14.9999999999999964
  1.4246058957235532  0.8418726813226182 22.3311839714360971
  1.4274380720277380  3.3868770324668045 26.1726838435698994
  1.4234758701203771  0.8426512982616067 25.1561998856551057
  1.4285742915073556  3.3860890856948718 23.3484867176850521
