Sn Se Tl S 
 1.0000000000000000
     3.9821312026515061   -0.0000000000000000    0.0000000000000000
    -1.9910656013257531    3.4486267826988826    0.0000000000000000
     0.0000000000000000    0.0000000000000000  -40.4586017217747695
 Sn  Se  Tl  S  
   1   1   2   2
Cartesian
  1.9814555846957431  1.8606645982967545 -23.8999810330469487
 -0.0096100166300094  3.0102068591963818 -25.4586017217747695
  2.4390849220335875  1.4530951755541923 -19.0837598082552944
  2.4390849220335875  1.4530951755541923 -16.1978423164651559
  0.4480193207078342  2.6026374364538198 -20.2816021247199707
  0.4480193207078341  2.6026374364538198 -15.0000000000000036
