F  Pt In O 
 1.0000000000000000
     3.4161511000473608    0.0000585085648160    0.0000000000000000
    -1.7080248187329423    2.9586286759040163    0.0000000000000000
    -0.0000000000000013   -0.0000000000000000   41.5466862895676528
 F   Pt  In  O  
   2   2   2   2
Cartesian
 -1.0878987798846360  1.6192224151635188 15.0000000000000000
  2.3280242549661194  1.6199324407629030 18.7933056562285934
  0.6200060406344767  0.6334064111363382 17.6544166225755887
  0.6201417094437167  2.6056720463463545 16.1389253694520747
  1.9549794155408806  1.4279639663623742 22.9057514699140370
  1.9549794155408804  1.4279639663623742 25.7560166675353130
  0.2469207759474465  2.4141540221421076 22.1150818448948314
  0.2469207759474463  2.4141540221421076 26.5466862895676528
