Cl Pt S 
 1.0000000000000000
     3.6024899558567389    0.0000000000000002    0.0000000000000000
    -1.8012449768912275    3.1204155688405661    0.0000000000000000
     0.0000000000000002    0.0000000000000000  -39.1396982585729205
 Cl  Pt  S  
   2   3   2
Cartesian
 -0.4556882345841845  1.9074620303105212 -19.1833300419795201
  3.1456957281709332  1.9086142836629618 -15.0000000000000036
  1.3452652463139259  0.8683496059018212 -16.3487828642561404
  1.3454804154883508  2.9481979882043245 -17.8325459139145082
  0.7965661122043538  0.1836905411031625 -22.9076708890724490
  2.5978110904784364  1.2238290640500178 -21.6756435195719810
  0.7965661128957816  2.2639675869968729 -24.1396982585729205
