Pb Cl Ge F 
 1.0000000000000000
     4.2152171777540968   -0.0000000000000000    0.0000000000000000
    -2.1076085888770484    3.6504851584042965    0.0000000000000000
     0.0000000000000013    0.0000000000000022   41.0082669632743304
 Pb  Cl  Ge  F  
   1   2   2   2
Cartesian
 -0.4541955406995946  1.5451931510103796 16.7004028302812486
  1.6534130481774538  2.7620215371451455 18.4008056605625043
  1.6534130481774538  2.7620215371451446 15.0000000000000000
  1.1964978207427921  0.7949269655097474 23.6342803412090490
  1.1964978244245281  3.2285837377792768 24.2273602264865673
  1.1964978207427921  0.7949269655097467 21.8533736356303336
  1.1964978244245281  3.2285837377792777 26.0082669632743233
