Mo Te Zn Cl
 1.0000000000000000
     3.5731336526976927    0.0000000000000000    0.0000000000000000
    -1.7865668263488466    3.0944245143532854    0.0000000000000000
     0.0000000000000000    0.0000000000000000   40.2759715175401212
 Mo  Te  Zn  Cl 
   1   2   1   2
Cartesian
 -0.7367367249815209  1.4523615247110075 16.8050999999999959
  1.0498301013673252  2.4838363628287690 18.6101999999999990
  1.0498301013673252  2.4838363628287690 14.9999999999999964
  0.5006331009732006  0.9174899477646585 23.9085045289579980
  2.2871999273220460  1.9489647858824199 25.2759715175401141
  0.5006331009732006  2.9804396240001809 22.5410375403758607
