Ti Te Zr Te
 1.0000000000000000
     3.6784376103534528   -0.0000000000000000    0.0000000000000000
    -1.8392188051767264    3.1856204168022142    0.0000000000000000
     0.0000000000000000    0.0000000000000000   46.1239857833678855
 Ti  Te  Zr  Te 
   2   2   2   2
Cartesian
  2.0350178520740476  1.3991830945149339 16.7151585350576077
  2.0350178520740476  1.3991830945149339 19.0942749138068599
  0.1957990468973213  2.4610565667823381 15.0000000000000018
  0.1957990468973213  2.4610565667823381 20.8094364375122680
  2.0531992823875775  1.3485819327410722 26.6269011662068209
  2.0531992823875775  1.3485819327410722 29.3057921811496485
  0.2139804772108510  2.4104554050084772 24.8087077294569944
  0.2139804772108510  2.4104554050084772 31.1239857833678926
