Cd Cl Pb S 
 1.0000000000000000
     3.8737995855581895   -0.0000000000000000    0.0000000000000000
    -1.9368997927790947    3.3548088502630216    0.0000000000000000
     0.0000000000000000    0.0000000000000000   39.3235466449078572
 Cd  Cl  Pb  S  
   1   2   1   2
Cartesian
  0.5283435363385047  0.7404523928925441 16.4378714166122712
  2.4652433291175990  1.8587220096468846 17.8757428332245638
  0.5283435363385049  2.9769916264012251 14.9999999999999982
  0.6069132249338027  0.7295648981634615 22.7815562868702237
  2.5438130177128975  1.8478345149178022 24.3235466449078572
  0.6069132249338027  2.9661041316721426 21.2395659288325902
