Ca I  Sn I 
 1.0000000000000000
     4.4026105296502980    0.0000000000000000    0.0000000000000000
    -2.2013052648251490    3.8127725616460206    0.0000000000000000
     0.0000000000000000    0.0000000000000000   41.9236566897724785
 Ca  I   Sn  I  
   1   2   1   2
Cartesian
  0.1913533207907256  1.5493108479394420 16.9490723290323366
  2.3926585856158749  2.8202350351547816 18.8981446580646484
  2.3926585856158749  2.8202350351547816 15.0000000000000000
  0.3203251543445809  1.6250971308439954 24.9098018931916663
  2.5216304191697301  2.8960213180593355 26.9236566897724714
  2.5216304191697301  2.8960213180593355 22.8959470966108611
