Tl Se Hg I 
 1.0000000000000000
     4.3048772090655110    0.0000000000000000    0.0000000000000000
    -2.1524386045327555    3.7281330232233856    0.0000000000000000
     0.0000000000000000    0.0000000000000000   42.9279655801518558
 Tl  Se  Hg  I  
   2   2   1   2
Cartesian
  2.3669084998279635  1.6618921887780687 16.2878300414387454
  2.3669084998279635  1.6618921887780687 19.1809988256016268
  0.2144698952952079  2.9046031965191972 15.0000000000000000
  0.2144698952952079  2.9046031965191972 20.4688289080443653
 -0.0908820406698796  0.7737261822432808 26.1847150642420345
  2.0615565638628768  2.0164371899844094 27.9279655801518487
 -0.0908820406698795  3.2591481977255379 24.4414645483322204
