Ge O  Ni O 
 1.0000000000000000
     2.8716880139685728    0.0000000000000000    0.0000000000000000
    -1.4358440069842864    2.4869547718400655    0.0000000000000000
     0.0000000000000000    0.0000000000000000   37.4362065524482830
 Ge  O   Ni  O  
   1   2   1   2
Cartesian
  0.5276402997140913  0.5073252747071291 15.9794407839483270
  1.9634843066983776  1.3363101986538175 16.9588815678966540
  0.5276402997140913  2.1652951226005062 15.0000000000000000
  0.6485959540918893  0.8906288066218535 21.4867958987071717
  2.0844399610761757  1.7196137305685419 22.4362065524482794
  0.6485959540918891  2.5485986545152306 20.5373852449660639
