Ti Br Cd F 
 1.0000000000000000
     3.4920762402026742   -0.0000000000000000    0.0000000000000000
    -1.7460381201013349    3.0242267359675701    0.0000000000000000
     0.0000000000000002   -0.0000000000000000   39.3604056476235371
 Ti  Br  Cd  F  
   1   2   1   2
Cartesian
 -0.7007519342511210  1.4128197103592099 16.6938534583278368
  1.0452861858502169  2.4208952890150668 18.3877069173080088
  1.0452861858502169  2.4208952890150668 15.0000000000000000
  0.5424645702428417  0.8938624515394357 23.3432439655943575
  2.2885026903441781  1.9019380301952924 24.3604056476235371
  0.5424645702428402  2.9100136088511492 22.3260822835652135
