Hf I  Sn Se
 1.0000000000000000
     3.8399823198696810   -0.0000000000000000    0.0000000000000000
    -1.9199911599348405    3.3255222390902457    0.0000000000000000
     0.0000000000000000    0.0000000000000000  -39.3928587303763535
 Hf  I   Sn  Se 
   1   2   1   1
Cartesian
 -0.1032514832987181  1.3346385281074182 -16.9476853865801651
  1.8167396766361221  2.4431459411374998 -14.9999999999999982
  1.8167396766361221  2.4431459411374998 -18.8953707810581442
  2.1770723765048245  1.8495348350223213 -22.8342380416485398
  0.2570812165699846  2.9580422480524029 -24.3928587303763607
