Pt O  Ga N 
 1.0000000000000000
     3.2081455075234961    0.0000000000000000    0.0000000000000000
    -1.6040727537617481    2.7783355085522685    0.0000000000000000
     0.0000000000000000    0.0000000000000000   35.8246281902948027
 Pt  O   Ga  N  
   1   2   1   1
Cartesian
  0.8125445980416447 -0.0992652561612706 15.9429177774534665
  2.4166173518033927  0.8268465800228189 16.8858355549069366
  0.8125445980416447  1.7529584162069083 14.9999999999999964
  0.1491510735928238  1.9680172058187404 20.8246281902948027
  1.7532238273545717  1.0419053696346507 20.8246281902948027
