Cr Te Pt S 
 1.0000000000000000
     3.5219000101673119    0.0000000000000000    0.0000000000000000
    -1.7609500050836560    3.0500548783935644    0.0000000000000000
     0.0000000000000000    0.0000000000000000   39.6902358517795193
 Cr  Te  Pt  S  
   1   2   1   2
Cartesian
 -0.4948964486557338  1.2334678600933029 16.7062363127964808
  1.2660535564279218  2.2501528195578242 18.4124726255929616
  1.2660535564279218  2.2501528195578242 14.9999999999999964
  0.3356698593867976  0.9878475438904860 23.4582084822790549
  2.0966198644704535  2.0045325033550077 24.6902358517795193
  0.3356698593867974  3.0212174628195290 22.2261811127785833
