S  Zn Sn Se
 1.0000000000000000
     3.8937291180999658    0.0000000000000000    0.0000000000000000
    -1.9468645579296524    3.3723241029522608    0.0000000000000000
    -0.0000000000000000    0.0000000000000000   40.2166506622866962
 S   Zn  Sn  Se 
   2   2   1   2
Cartesian
  1.1445683437602234  0.6434119808998597 15.0000000000000000
  1.1446385794639582  2.8914319689667920 18.1207426419030746
  1.1444422415592297  0.6434600982545116 17.5814600890093473
  1.1447646965972116  2.8913839798562018 15.5394284044792990
  0.7583420167152080 -0.1043205380982480 23.6237196427124907
  2.7052065761386341  1.0197874962191720 25.2166506622866962
  0.7583420174620950  2.1438955305365921 22.0307886231382248
