I  Cd Tl Se Tl
 1.0000000000000000
     4.3150114054768842    0.0008383076656587    0.0000000000000000
    -2.1567737230214936    3.7441645671163721    0.0000000000000000
     0.0000000000000034    0.0000000000000000   44.4707475799503271
 I   Cd  Tl  Se  Tl 
   2   2   1   2   1
Cartesian
  1.3409847576959972 -0.9140799814648448 14.9999999999999982
  1.3524093233298842  4.0471453149973993 20.9102076548876994
  1.3575234624353438  1.5534028310774699 19.2986420562647361
  1.3389116744413769  1.5775012515804689 16.6116177631989359
  0.7942195515131826  3.2401291797820084 28.1866349835211096
  2.9513294200112323  1.9917927933911672 24.0078349897928902
  0.7936251131991303  0.7432392840889045 29.4707475799503271
  0.7939615444131967  3.2405564445038397 25.2919442428423267
