Hf O  Ga N 
 1.0000000000000000
     3.2614369526390430    0.0000000000000000    0.0000000000000000
    -1.6307184763195215    2.8244872538267161    0.0000000000000000
     0.0000000000000000    0.0000000000000000  -35.9379344152928937
 Hf  O   Ga  N  
   1   2   1   1
Cartesian
  0.5040161789629618  0.3857534380585120 -15.9724295917334569
  2.1347346552824833  1.3272491893340839 -14.9999999999999982
  0.5040161789629618  2.2687449406096558 -16.9448591834669138
  0.7261517306427946  2.1662075104835359 -20.9379344152928866
  2.3568702069623164  1.2247117592079639 -20.9379344152928866
