Sn Te I  Zn
 1.0000000000000000
     4.1821972364858251    0.0000000000000035    0.0000000000000000
    -2.0897126497802923    3.6226885358345360    0.0000000000000000
     0.0000000000000012    0.0000000000000022   40.6717820450261200
 Sn  Te  I   Zn 
   1   1   2   2
Cartesian
  1.8614896378835994  1.5511826129005277 16.6861605505646402
 -0.2291469908717731  2.7587454581787045 15.0000000000000000
  0.5516477580057322  0.7014528877662354 20.3684320115896220
  0.5413733045724411  3.1059342497931639 25.6717820450261200
  2.6314461262824622  1.8958112763302115 24.2058257504851113
  2.6441223210002458  1.9120925250369603 21.8342812477044568
