Ba Cl Ca I 
 1.0000000000000000
     4.4595674100994023    0.0000000000000000    0.0000000000000000
    -2.2297837050497011    3.8620986670352577    0.0000000000000000
     0.0000000000000000    0.0000000000000000   41.2763127602267943
 Ba  Cl  Ca  I  
   1   2   1   2
Cartesian
  0.2044938596710434  1.4827716769886883 16.6919307837616309
  2.4342775647207446  2.7701378993337742 18.3838615675232617
  2.4342775647207446  2.7701378993337742 15.0000000000000000
  0.2997744661273020  1.6758799795733443 24.3272404311944825
  2.5295581711770030  2.9632462019184302 26.2763127602267943
  2.5295581711770030  2.9632462019184302 22.3781681021621424
