Bi O  Tl S 
 1.0000000000000000
     4.0168884192502450   -0.0000000000000000    0.0000000000000000
    -2.0084442096251225    3.4787274152382288    0.0000000000000000
     0.0000000000000000    0.0000000000000000   42.6758222021670974
 Bi  O   Tl  S  
   2   2   2   2
Cartesian
  2.2309862703585281  1.2239613343692217 15.1279491455499375
  2.2309862703585281  1.2239613343692217 18.2805653489927167
  0.2225420607334059  2.3835371394486313 14.9999999999999964
  0.2225420607334059  2.3835371394486313 18.4085143927414876
  2.3247788867153245  1.5499663341879608 23.5920623939118101
  2.3247788867153245  1.5499663341879608 26.4779798857019486
  0.3163346770902017  2.7095421392673704 22.3942200774471303
  0.3163346770902017  2.7095421392673704 27.6758222021670974
