Sn O  Si S 
 1.0000000000000000
     3.3237104744001744   -0.0000000000000001    0.0000000000000000
    -1.6616744964422616    2.8787145691879763    0.0000000000000000
     0.0000000000000012    0.0000000000000020   37.6323460602888815
 Sn  O   Si  S  
   1   1   1   2
Cartesian
  1.5600479230754927  1.7212981592037266 16.0113936186181434
 -0.1017470672053196  2.6808696822663851 15.0000000000000000
  2.7270612707320674  0.7066585860470410 21.3066660145675613
  1.0655969236463547  1.6664946644487511 19.9804441067945433
 -0.5965957407520539  2.6264441761163613 22.6323460602888815
