In O  Ni S 
 1.0000000000000000
     3.3969624489673245    0.0000000000000000    0.0000000000000000
    -1.6984812244836622    2.9418557765075026    0.0000000000000000
     0.0000000000000000    0.0000000000000000   40.7640563765035253
 In  O   Ni  S  
   2   2   1   2
Cartesian
  1.6708833342010641  1.4060738176105356 15.7906696250192056
  1.6708833342010641  1.4060738176105356 18.6409348226404816
 -0.0275978902825983  2.3866924097797031 15.0000000000000000
 -0.0275978902825983  2.3866924097797031 19.4316044446728213
 -0.1651167404393263  0.7802788212857936 24.5886224482782652
  1.5333644840443359  1.7608974134549613 25.7640563765035182
 -0.1651167404393263  2.7415160056241286 23.4131885200530050
