Ca Br S  Zr
 1.0000000000000000
     4.1570843791018719    0.0000000000000000    0.0000000000000000
    -2.0785421883527175    3.6006424120184990    0.0000000000000000
    -0.0000000000000000    0.0000000000000000   40.2770682190926976
 Ca  Br  S   Zr 
   1   2   2   2
Cartesian
 -0.6723297536678249  1.5885167895859313 16.7571598031843862
  1.4062124362825172  2.7887309269254308 18.5143196063686446
  1.4062124362825172  2.7887309269254308 14.9999999999999982
  1.1636317422053628  0.7521166968296202 21.9492065029810774
  1.1639143346228440  3.1520930958432869 25.2770682190926976
  1.1637013134458283  0.7520349247017810 24.5730151057227957
  1.1638447524890621  3.1521748709068538 22.6532976226835459
