Pd Se Sn Se
 1.0000000000000000
     3.7998492884591339    0.0000000000000000    0.0000000000000000
    -1.8999246442295670    3.2907660143578337    0.0000000000000000
     0.0000000000000000    0.0000000000000000   39.2363452973658724
 Pd  Se  Sn  Se 
   1   2   1   2
Cartesian
  0.4841842097201426  0.7074139687003052 16.3130582836290756
  2.3841088539497095  1.8043359734862499 17.6261168079604857
  0.4841842097201426  2.9012579782721946 15.0000000000000000
  0.6449900567244109  0.7302899949542067 22.6434142777916669
  2.5449147009539779  1.8272119997401512 24.2363452973658724
  0.6449900567244109  2.9241340045260955 21.0504832582174011
