Pd O  Sn O 
 1.0000000000000000
     3.1566661584593305    0.0000000000000000    0.0000000000000000
    -1.5783330792296653    2.7337530844924141    0.0000000000000000
     0.0000000000000000    0.0000000000000000   37.6096414340152236
 Pd  O   Sn  O  
   1   2   1   2
Cartesian
  0.4335334879566887  0.6835291093579812 15.9790201188321692
  2.0118665671863538  1.5947801375221193 16.9580402376643384
  0.4335334879566887  2.5060311656862573 15.0000000000000000
  0.5751520679254518  0.6293149434609924 21.6006791093428063
  2.1534851471551173  1.5405659716251305 22.6096414340152236
  0.5751520679254518  2.4518169997892687 20.5917167846703961
