Zr I  Zr Se
 1.0000000000000000
     3.8119496832192903    0.0000000000000000    0.0000000000000000
    -1.9059748416096451    3.3012452636159488    0.0000000000000000
    -0.0000000000000000    0.0000000000000000   35.5385535337366463
 Zr  I   Zr  Se 
   1   2   1   2
Cartesian
 -0.4185017935853141  1.4332067213542210 16.9391452359630961
  1.4874730480243312  2.5336218092262039 18.8782904725522265
  1.4874730480243312  2.5336218092262039 15.0000000000000000
  0.4385327899308040  0.9227863541808401 18.9579482286046179
  2.3445076315404485  2.0232014420528226 20.5385535337366463
  0.4385327899308040  3.1236165299248051 17.3773429234724688
