Zr I  Sn Se
 1.0000000000000000
     3.8679355067774184   -0.0000000000000000    0.0000000000000000
    -1.9339677533887092    3.3497304090690814    0.0000000000000000
     0.0000000000000000    0.0000000000000000  -39.3724380900415198
 Zr  I   Sn  Se 
   1   2   1   1
Cartesian
 -0.1046432863312804  1.3507152775064826 -16.9391452365891269
  1.8293244670574289  2.4672920805295093 -14.9999999999999964
  1.8293244670574289  2.4672920805295093 -18.8782904725522229
  2.1965893957957969  1.8498103471906822 -22.8138174013136954
  0.2626216424070882  2.9663871502137091 -24.3724380900415163
