Hf Te Pt Te
 1.0000000000000000
     3.9625755625152919    0.0000000000000000    0.0000000000000000
    -1.9812877812576459    3.4316911015536546    0.0000000000000000
    -0.0000000000000000    0.0000000000000000   40.2870275124547703
 Hf  Te  Pt  Te 
   1   2   1   2
Cartesian
 -0.5843164471288517  1.3967903427411485 16.8494380278571079
  1.3969713341287939  2.5406873765923668 18.6988761198817670
  1.3969713341287939  2.5406873765923668 15.0000000000000018
  0.4701822694469499  1.0280526907147038 23.8998132829012562
  2.4514700507045952  2.1719497245659221 25.2870275124547703
  0.4701822694469499  3.3158467584171403 22.5125990543042285
