In O  Pt S 
 1.0000000000000000
     3.5069564784203666    0.0000000000000000    0.0000000000000000
    -1.7534782392101833    3.0371134002784510    0.0000000000000000
     0.0000000000000000    0.0000000000000000   40.8557845270205462
 In  O   Pt  S  
   2   2   1   2
Cartesian
  1.4513866634153105  1.4817850781511324 15.7906696250192056
  1.4513866634153105  1.4817850781511324 18.6409348226404816
 -0.3020915757948728  2.4941562115772822 15.0000000000000000
 -0.3020915757948728  2.4941562115772822 19.4316044446728213
 -0.2719992565396360  1.0283603797869918 24.6237571575200676
  1.4814789826705472  2.0407315132131423 25.8557845270205391
 -0.2719992565396362  3.0531026466392923 23.3917297880195996
