Sr Br Ag
 1.0000000000000000
     4.4114325815508435   -0.0000000000000000    0.0000000000000000
    -2.2057162895090281    3.8228401752460877    0.0000000000000000
     0.0000000000000000    0.0000000000000000   40.7003571102147887
 Sr  Br  Ag 
   1   4   2
Cartesian
 -0.3224564945823608  1.7606046825328598 16.8028165994893754
  1.8832597966151920  3.0348847409482222 18.6056331989787509
  1.8832597966151920  3.0348847409482222 15.0000000000000000
  1.1667902952853888  0.8213468318490043 21.8588572380809829
  1.1696234857185599  3.3672619045314214 25.7003571102147887
  1.1656598650491894  0.8221257274135347 24.6838731522999950
  1.1707601120490683  3.3664736757952962 22.8761599843299415
