Sr I  Te Cd
 1.0000000000000000
     4.6521580441743069   -0.0000000000000000    0.0000000000000000
    -2.3260790207537210    4.0297781582058878    0.0000000000000000
    -0.0000000000000000    0.0000000000000000   41.2920188312595258
 Sr  I   Te  Cd 
   1   2   2   2
Cartesian
 -0.3045366814808386  1.6736062447213436 17.0028850106790017
  2.0215423410507922  3.0168656307899728 19.0057700213581597
  2.0215423410507922  3.0168656307899728 15.0000000000000018
  1.5294974211070151  0.8097238830820961 22.3052172432933702
  1.5296063894286582  3.4957081673236203 26.2920188312595258
  1.5291173742418198  0.8099672505306743 25.3490764527451233
  1.5299879250916697  3.4954643901241904 23.2477097622909881
