Se Zn Cd Br
 1.0000000000000000
     4.0686951056201934    0.0000000000000000    0.0000000000000000
    -2.0343475516461549    3.5237565969184401    0.0000000000000000
     0.0000000000000000    0.0000000000000000   40.4720665003193645
 Se  Zn  Cd  Br 
   2   2   1   2
Cartesian
  1.2217898025212308  0.9505637215113318 15.0000000000000000
  1.2218949232662664  3.2996016238906334 18.4133035906909797
  1.2216894067612876  0.9506185185464339 17.6556971816099164
  1.2219952896733712  3.2995468248753559 15.7579816020882379
  0.6977820978895424  0.3842931579255608 23.9054586496034140
  2.7321296510876198  1.5588786902317071 25.4720665003193645
  0.6977820986655039  2.7334642225378536 22.3388507988874743
