Zr Te Se Ti
 1.0000000000000000
     3.9821105470197802    0.0000000000000000    0.0000000000000000
    -1.9910552723555488    3.4495378125376703    0.0000000000000000
     0.0000000000000000    0.0000000000000000   40.6872027369745126
 Zr  Te  Se  Ti 
   1   2   2   2
Cartesian
 -0.5273785166086049  1.5901121481896108 16.8615645620742072
  1.4636767572860658  2.7399580857021677 18.7231291241485991
  1.4636767572860658  2.7399580857021677 15.0000000000000000
  1.2920682167806572  0.6479171856253284 22.1278712791072323
  1.2921747863314734  2.9470271311573897 25.6872027369745126
  1.2918765664543574  0.6479840922415413 24.7611894151758882
  1.2923665172271506  2.9469602509323027 23.0539559025219916
