Zr Te Hg Cl
 1.0000000000000000
     3.9582585949776452    0.0000000000000000    0.0000000000000000
    -1.9791292974888228    3.4279524979987395    0.0000000000000000
     0.0000000000000000    0.0000000000000000   40.3925340146193079
 Zr  Te  Hg  Cl 
   1   2   1   2
Cartesian
 -0.4128565856468288  1.3496326649088319 16.8615645620742072
  1.5662727118419941  2.4922834975750785 18.7231291241485991
  1.5662727118419941  2.4922834975750785 14.9999999999999982
  0.3949258263182263  0.9541278979318750 23.9329297260349563
  2.3740551238070515  2.0967787305981220 25.3925340146193008
  0.3949258263182268  3.2394295632643688 22.4733254374506330
