Ti H  Ge O 
 1.0000000000000000
     2.8469446753072680    0.0000000000000000    0.0000000000000000
    -1.4234723376536340    2.4655264119849338    0.0000000000000000
    -0.0000000000000000    0.0000000000000000   38.2085797002327610
 Ti  H   Ge  O  
   1   2   1   2
Cartesian
 -0.6007969600145995  1.1677827815350654 16.1343963302347539
  0.8226753754042972  1.9896249220790989 17.2687926809326058
  0.8226753754042972  1.9896249220790989 15.0000000000000000
  0.7090314900103154  0.7133764841366037 22.2291389162844339
  2.1325038276639492  1.5352186214649151 23.2085797002327610
  0.7090314900103154  2.3570607587932262 21.2496981323361069
