Hf O  B  P 
 1.0000000000000000
     3.2351259310542853    0.0000000000000000    0.0000000000000000
    -1.6175629655271426    2.8017012407347952    0.0000000000000000
     0.0000000000000000    0.0000000000000000  -35.9379344152928937
 Hf  O   B   P  
   1   2   1   1
Cartesian
  0.5018235938308986  0.3819557692098584 -15.9724295917334569
  2.1193865593580412  1.3158561827881234 -14.9999999999999982
  0.5018235938308986  2.2497565963663884 -16.9448591834669138
  0.7261517306427941  2.1510168350889218 -20.9379344152928866
  2.3437146961699380  1.2171164215106569 -20.9379344152928866
