Se Ti Hg Cl
 1.0000000000000000
     4.0178469754632502    0.0000000000000000    0.0000000000000000
    -2.0089234865772836    3.4804864674102398    0.0000000000000000
     0.0000000000000000    0.0000000000000000   40.3710004410988574
 Se  Ti  Hg  Cl 
   2   2   1   2
Cartesian
  1.2433171183947769  0.6541217264957142 15.0000000000000000
  1.2434246443197541  2.9738588876390222 18.5593314578672803
  1.2431237481518420  0.6541892333864817 17.6333181360686524
  1.2436180958551155  2.9737914073761571 15.9260846234147593
  0.6150009295949619 -0.0160556771696363 23.9113961525145129
  2.6239244177113696  1.1441064786337773 25.3710004410988574
  0.6150009303645236  2.3042686344371912 22.4517918639301897
