Pb S  Tl S 
 1.0000000000000000
     4.0032830980165572   -0.0000000000000000    0.0000000000000000
    -2.0016415490082786    3.4669448614232072    0.0000000000000000
    -0.0000000000000000    0.0000000000000000   40.3760651848962624
 Pb  S   Tl  S  
   1   1   2   2
Cartesian
  1.9595932567249821  1.9052856752802705 16.4391638847389387
 -0.0420482922832964  3.0609339624213394 15.0000000000000000
  2.4936620033620374  1.4496708329657921 21.2923053766409751
  2.4936620033620374  1.4496708329657921 24.1782228684311136
  0.4920204543537584  2.6053191201068611 20.0944630601763023
  0.4920204543537584  2.6053191201068611 25.3760651848962624
