Ga Se Ga Se
 1.0000000000000000
     3.8298311619770713   -0.0000000000000000    0.0000000000000000
    -1.9149155836216551    3.3167445192540659    0.0000000000000000
     0.0000000000000000    0.0000000000000000   43.2907218553987576
 Ga  Se  Ga  Se 
   1   2   3   2
Cartesian
  0.0745592205634458  3.1653667828653882 27.1192628985712183
  1.9895332021492402  2.0597515956343870 23.4780387151593395
  0.0743802135832232  0.9543162468936320 28.2907218553987541
  0.0744386119939894  3.1654455784493067 24.6494973098142580
  2.3564103063111865  1.4907419503303512 16.1770728543176290
  2.3564103063111865  1.4907419503303512 18.6526280641098126
  0.4414947244449449  2.5963234567483728 15.0000000000000000
  0.4414947244449449  2.5963234567483728 19.8297009184262052
