Zr I  Br Cu
 1.0000000000000000
     3.8908545729671378    0.0000000000000000    0.0000000000000000
    -1.9454272853546615    3.3703928849228726    0.0000000000000000
    -0.0000000000000000    0.0000000000000000   41.0832075549906506
 Zr  I   Br  Cu 
   1   2   2   2
Cartesian
 -0.4739311150842541  1.4199380736943263 16.9391452359630961
  1.4714961717756174  2.5434023686686174 18.8782904725522300
  1.4714961717756174  2.5434023686686174 15.0000000000000018
  1.1308417437819649  0.7757523568047627 22.4500793223685946
  1.1317459060766013  3.0217461208083818 26.0832075549906506
  1.1304997091635181  0.7759765564365921 24.9358696125053498
  1.1320858671524601  3.0215227350094560 23.5977578274818995
