Zr Te Bi O 
 1.0000000000000000
     3.9494230646307238    0.0000000000000000    0.0000000000000000
    -1.9747115323153619    3.4203007042623974    0.0000000000000000
     0.0000000000000000    0.0000000000000000   40.9520083682042255
 Zr  Te  Bi  O  
   1   2   2   2
Cartesian
 -0.6100954469548683  1.4584855585056111 16.8615645620742072
  1.3646160853604938  2.5985857932597436 18.7231291241485991
  1.3646160853604938  2.5985857932597436 15.0000000000000000
  2.1557033093860278  1.5052387875183797 22.6714431210126648
  2.1557033093860278  1.5052387875183797 25.8240593244554475
  0.1809917770706659  2.6453390222725122 22.5434939754627237
  0.1809917770706659  2.6453390222725122 25.9520083682042184
