Cr Se Pd O 
 1.0000000000000000
     3.1519952098507513    0.0000000000000000    0.0000000000000000
    -1.5759976049253757    2.7297079243376134    0.0000000000000000
     0.0000000000000000    0.0000000000000000   39.0431099436405873
 Cr  Se  Pd  O  
   1   2   1   2
Cartesian
 -0.5306045123498477  1.1726846479263235 16.5737644427049204
  1.0453930925755279  2.0825872893721944 18.1475288854098444
  1.0453930925755279  2.0825872893721944 15.0000000000000000
  0.5745933182885014  0.7869348350632378 23.0640898248084198
  2.1505909232138767  1.6968374765091090 24.0431099436405873
  0.5745933182885014  2.6067401179549798 22.0850697059762489
