S  Hf Hg Br
 1.0000000000000000
     4.1456091251073417    0.0000000000000000    0.0000000000000000
    -2.0728045613689741    3.5907354462949090    0.0000000000000000
    -0.0000000000000000    0.0000000000000000   40.3679031834505508
 S   Hf  Hg  Br 
   2   2   1   2
Cartesian
  1.2291316877105363  0.7740319449754194 15.0000000000000018
  1.2294556835949575  3.1673406763997645 18.3254866465823767
  1.2292586194368231  0.7739075859683442 17.6045811352982859
  1.2293287419344010  3.1674650406019467 15.7209963454440551
  0.6956099331678955 -0.1139706105431126 23.7784956073197478
  2.7684144961164643  1.0829412048885236 25.3679031834505508
  0.6956099339576931  2.2798530203201599 22.1890880311889518
