Sn S  Pt Se
 1.0000000000000000
     3.7501508399122399   -0.0000000000000000    0.0000000000000000
    -1.8750754199561199    3.2477258953875490    0.0000000000000000
    -0.0000000000000000    0.0000000000000000   37.6239359170127727
 Sn  S   Pt  Se 
   1   1   1   2
Cartesian
  2.0941276636230044  1.1682914782570235 16.4598471617338120
  0.2190522436668847  2.2508667767195396 15.0000000000000018
  0.7363562738887346  0.2641897785505921 21.3141271952050246
  2.6114316938448545  1.3467650770131085 22.6239359170127727
  0.7363562738887344  2.4293403754756246 20.0043184673076411
