Pb Cl Se Zn
 1.0000000000000000
     4.1277091060688189    0.0000000000000000    0.0000000000000000
    -2.0638545518704676    3.5748642204858960    0.0000000000000000
     0.0000000000000000    0.0000000000000000   40.1847803537553432
 Pb  Cl  Se  Zn 
   1   2   2   2
Cartesian
 -0.7183489178948026  1.6589927320065214 16.7004028302812486
  1.3455056355275876  2.8506141388351534 18.4008056605625043
  1.3455056355275876  2.8506141388351534 14.9999999999999982
  1.1938966330132093  0.7028868110195839 21.7714767630643600
  1.1940032784608199  3.0859945310944310 25.1847803537553432
  1.1937947810725325  0.7029424028162327 24.4271739446742799
  1.1941051006229131  3.0859389372888879 22.5294583651525997
