Ge Br Ge Br Hg Br
 1.0000000000000000
     4.1952290033931980   -0.0506467540195987    0.0000000000000001
    -2.0538371841621461    3.6587912645409681    0.0000000000000001
    -0.0000000000000021    0.0000000000000000  -36.5938724531238861
 Ge  Br  Ge  Br  Hg  Br 
   1   1   1   1   1   2
Cartesian
  0.4831767972184080  1.0659015524430442 -18.0293486901658646
 -1.6340947022965477 -0.1223663192562074 -15.0000000000000000
 -1.6296073051535602 -0.1200888186793973 -17.3501246890710661
 -3.7120933061330432  1.1138896482536655 -20.3794909095427279
  3.9306993103998282  0.6037017523207003 -20.0044648769930902
  6.0429062512745766  1.7895343378212905 -18.4150573008622871
  3.9598841887561296  3.0260136773414792 -21.5938724531238861
