Hf Cl F  Pt
 1.0000000000000000
     3.3707005030843118    0.0000585085648160    0.0000000000000000
    -1.6852995202514176    2.9192673043168478    0.0000000000000000
    -0.0000000000000013   -0.0000000000000000   40.7417035266978544
 Hf  Cl  F   Pt 
   1   2   2   2
Cartesian
 -0.3341594779143365  1.2723389166945016 16.7299570918342511
  1.3512076840580656  2.2454670238433279 18.4599141836685092
  1.3512076840580658  2.2454670238433279 15.0000000000000000
 -0.4915841365000178  1.5829262918777329 21.9483978704692646
  2.8788913358574115  1.5836276497776214 25.7417035266978544
  1.1935974321274485  0.6102257687042738 24.6028144930448498
  1.1937317458488286  2.5562527909014801 23.0873232399213393
