Ga Se Pb S 
 1.0000000000000000
     3.8362177587755584   -0.0000000000000000    0.0000000000000000
    -1.9181088793877792    3.3222620335486370    0.0000000000000000
     0.0000000000000000    0.0000000000000000   41.8939602086041916
 Ga  Se  Pb  S  
   2   2   1   2
Cartesian
  2.1098518907885397  1.4888441708216220 16.1770728543176254
  2.1098518907885397  1.4888441708216220 18.6526280641098126
  0.1917430114007607  2.5962648486711677 15.0000000000000000
  0.1917430114007607  2.5962648486711677 19.8297009184262052
 -0.0348413256693605  0.7144690468264152 25.3519698505665616
  1.8832675537184189  1.8218897246759609 26.8939602086041916
 -0.0348413256693605  2.9293104025255063 23.8099794925289245
