Br Cu Sn Se
 1.0000000000000000
     3.9087443389519279    0.0000000000000000    0.0000000000000000
    -1.9543721683470565    3.3858858767334592    0.0000000000000000
    -0.0000000000000000    0.0000000000000000   40.7476420739963174
 Br  Cu  Sn  Se 
   2   2   1   2
Cartesian
  1.1288624211547067  0.8732253835514421 15.0000000000000000
  1.1297707406950332  3.1295435115625923 18.6331282326220524
  1.1285188138947824  0.8734506137821300 17.4857902901367552
  1.1301122648784250  3.1293190989058282 16.1476785051133049
  0.6227695558249504  0.3176080399759538 24.1547110544221120
  2.5771417256772171  1.4462366655537733 25.7476420739963174
  0.6227695565775554  2.5748652911315930 22.5617800348478461
