Ti Te Zn Cl
 1.0000000000000000
     3.6035341505123610    0.0000000000000000    0.0000000000000000
    -1.8017670752561807    3.1207521177484816    0.0000000000000000
     0.0000000000000000    0.0000000000000000   42.0514495770335657
 Ti  Te  Zn  Cl 
   2   2   1   2
Cartesian
  2.0814039161084907  1.4164059563734734 22.9571716745789018
  2.0814039161084907  1.4164059563734734 25.3362880533281540
  0.2796368408523103  2.4566566622896335 21.2420131395212977
  0.2796368408523104  2.4566566622896335 27.0514495770335657
  0.1968529984691891  0.5522621702285053 16.3674669885821373
  1.9986200737253692  1.5925128761446654 17.7349339771642533
  0.1968529984691891  2.6327635820608255 15.0000000000000018
