Tl Se Mg I 
 1.0000000000000000
     4.2150070298354247    0.0000000000000000    0.0000000000000000
    -2.1075035149177128    3.6503031649674744    0.0000000000000000
     0.0000000000000000    0.0000000000000000   42.7909272495713253
 Tl  Se  Mg  I  
   2   2   1   2
Cartesian
  2.2134375570946880  1.6328531483014475 16.2878300414387454
  2.2134375570946880  1.6328531483014475 19.1809988256016268
  0.1059340421769753  2.8496208699572723 15.0000000000000000
  0.1059340421769753  2.8496208699572723 20.4688289080443653
 -0.1170256845191071  0.8234529413478486 26.1166095929034583
  1.9904778303986037  2.0402206630036743 27.7909272495713253
 -0.1170256845191075  3.2569883846595000 24.4422919362355913
