Hf I  Mg Cl
 1.0000000000000000
     3.7230404133848216    0.0000000000000000    0.0000000000000000
    -1.8615202066924113    3.2242475773073735    0.0000000000000000
     0.0000000000000000    0.0000000000000000   40.4231576944148969
 Hf  I   Mg  Cl 
   1   2   1   2
Cartesian
 -0.4095264098816714  1.2505887212205253 16.9476853944779826
  1.4519937968107390  2.3253379136563161 18.8953707810581477
  1.4519937968107390  2.3253379136563161 15.0000000000000000
  0.3895364092444156  0.9262391885611836 24.0502518296707564
  2.2510566159368266  2.0009883809969748 25.4231576944148969
  0.3895364092444159  3.0757375734327663 22.6773459649266300
