Al Te Al Se Hf
 1.0000000000000000
     4.1989554392974853   -0.0000000000000000    0.0000000000000000
    -2.0994777212675269    3.6370201268763771    0.0000000000000000
     0.0000000000000000    0.0000000000000000   42.6812631680676020
 Al  Te  Al  Se  Hf 
   1   2   1   2   2
Cartesian
  0.6572397545870476  3.4079923021498768 18.8314022027447159
  2.7567624485709823  2.1956563182992292 15.0000000000000018
  0.6572141325605960  0.9832787317428127 20.1000459107870029
  0.6572591139377483  3.4079628733586262 16.2686119692352200
  1.4050194168853163  0.4225092549636830 23.9899866385317324
  1.4052794037007299  2.8466262206808253 27.6812631680676020
  1.4050797470368259  0.4224429790581272 26.7586349897193472
  1.4052191475215485  2.8466925482073204 24.9130537439104671
