Zr Te Cl Cd
 1.0000000000000000
     3.9272954596423180    0.0012519794577290    0.0000000000000000
    -1.9625545477181807    3.4081285357288325    0.0000000000000000
     0.0000000000000033    0.0000000000000000   41.7776429379927947
 Zr  Te  Cl  Cd 
   1   2   2   2
Cartesian
 -0.4556995938066662  1.5496973554102345 16.8615645620742072
  1.5083125300488192  2.6865748536249976 18.7231291241485991
  1.5083125300488189  2.6865748536249976 15.0000000000000000
  1.0598986112772324 -0.3675324493216980 21.2664886931439234
  1.0722560062789626  4.1542181854673377 26.7776429379927947
  1.0725504062911355  1.8822232980498299 25.3585283536682695
  1.0596620542195234  1.9044607395828521 22.6854398770535113
