Al Te Al S  Hf
 1.0000000000000000
     4.1401396236148829   -0.0000000000000000    0.0000000000000000
    -2.0700698134598219    3.5859128920285479    0.0000000000000000
     0.0000000000000000    0.0000000000000000   42.3122197622603338
 Al  Te  Al  S   Hf 
   1   2   1   2   2
Cartesian
  0.6369346330044727  3.3132130576427423 18.8314022027447159
  2.7070487891991375  2.1179127617123434 15.0000000000000000
  0.6369093699096477  0.9225714476754301 20.1000459107870029
  0.6369537211839220  3.3131840423834751 16.2686119692352200
  1.2907505979831870  0.2399242466607147 23.9867331156779571
  1.2910741645143198  2.6300186334456188 27.3122197622603338
  1.2908773622424410  0.2398000546745936 26.5913142509762430
  1.2909473903339028  2.6301428306198695 24.7077294611220140
