W  S  Ir
 1.0000000000000000
     3.2326265850184042    0.0000000000000000    0.0000000000000000
    -1.6163132915726059    2.7998551052499723    0.0000000000000000
    -0.0000000000000000    0.0000000000000000   41.4712177733269982
 W   S   Ir 
   1   4   2
Cartesian
 -0.4692154919623186  1.2867828296039943 16.5727974379861891
  1.1470978008590820  2.2200678646873184 18.1455948759723746
  1.1470978008590820  2.2200678646873184 15.0000000000000036
  0.9992535062756202  0.6483705302546550 21.8209239953068419
  0.9991075113531751  2.5150816920840326 26.4712177733269982
  0.9990657768291702  0.6487140444980327 25.2185494628524509
  0.9992954826543763  2.5147379161131242 23.0736084543211675
