Br Cd Ge F 
 1.0000000000000000
     4.1772791190770109    0.0014024937248978    0.0000000000000000
    -2.0874149540366744    3.6234476561581430    0.0000000000000000
     0.0000000000000046    0.0000000000000022   42.1757564046564397
 Br  Cd  Ge  F  
   2   2   2   2
Cartesian
  1.2589718480933019 -0.2704717465603432 14.9999999999999982
  1.2724755167390616  4.5367745507427752 20.7228492099077997
  1.2723038317779134  2.1213283182990597 19.2010592037222949
  1.2587224215400910  2.1453149763943737 16.5215258816320940
  1.3014546416579174  0.9368034130915556 24.8017697825911618
  1.3022710489744040  3.3529026817731742 25.3948496678686837
  1.3014546416579174  0.9368034130915551 23.0208630770124500
  1.3022710489744045  3.3529026817731746 27.1757564046564397
