Ge Te Zn Br
 1.0000000000000000
     3.8707804708034566   -0.0000000000000000    0.0000000000000000
    -1.9353902354017287    3.3521942201884789    0.0000000000000000
     0.0000000000000000    0.0000000000000000   38.1005058156349392
 Ge  Te  Zn  Br 
   1   1   1   2
Cartesian
  2.1032999395223522  1.0824256276748885 16.5598212339094282
  0.1679097041206243  2.1998237010710477 15.0000000000000000
  0.8264260478705281  0.1066729989847852 21.6179072103033185
  2.7618162832722550  1.2240710723809445 23.1005058156349392
  0.8264260478705281  2.3414691457771042 20.1353086049717156
