Sr Cl Br Hg
 1.0000000000000000
     4.2018198622921332    0.0010674728082233    0.0000000000000000
    -2.0999778531812372    3.6453804932674974    0.0000000000000000
     0.0000000000000034    0.0000000000000000   41.4668940425331769
 Sr  Cl  Br  Hg 
   1   2   2   2
Cartesian
 -0.3443734873106031  1.5975690838129113 16.6559757380194853
  1.7568471364904066  2.8134075634408924 18.3119514760389670
  1.7568471364904061  2.8134075634408924 15.0000000000000000
  1.1695858354474149 -0.3436180397856500 20.6972417693721980
  1.1802496503229463  4.4951007016912374 26.4668940425331769
  1.1847791630670093  2.0619304859126983 24.9151333866931353
  1.1656150036470092  2.0892316873267731 22.2485110634794054
