Ge Br Ge Br Mg I 
 1.0000000000000000
     4.2272955370483754   -0.0506467540195987    0.0000000000000001
    -2.0698704509897352    3.6865616972976638    0.0000000000000001
     0.0000000000000021   -0.0000000000000000   36.2773465601515355
 Ge  Br  Ge  Br  Mg  I  
   1   1   1   1   1   2
Cartesian
  0.6345162841334273  0.7110005656252860 17.3501422193768633
 -1.4988269636573766 -0.4865431943049594 20.3794909095427279
 -1.4943054814710706 -0.4842478754356769 18.0293662204716618
 -3.5928204221711737  0.7589683405934493 15.0000000000000000
  3.9077190408774234  1.1698700281054000 19.6030289034836720
  6.0359592485797613  2.3649594245248893 21.2773465601515355
  3.9369039192337247  3.6106955749639775 17.9287112468158050
