In S  Mg Br
 1.0000000000000000
     3.8990340190019581    0.0000000000000000    0.0000000000000000
    -1.9495170095009793    3.3766625106754335    0.0000000000000000
     0.0000000000000000    0.0000000000000000   42.1700392929319179
 In  S   Mg  Br 
   2   2   1   2
Cartesian
  2.1671174517125680  1.4667058063660561 16.1777227309346543
  2.1671174517125680  1.4667058063660561 18.9966802391880591
  0.2176004422115891  2.5922599765912007 14.9999999999999964
  0.2176004422115891  2.5922599765912007 20.1744029701158141
  0.0122076266044693  0.6625865074601253 25.6630136445161554
  1.9617246361054468  1.7881406776852709 27.1700392929319179
  0.0122076266044691  2.9136948479104166 24.1559879961003929
