W  Se Ni S 
 1.0000000000000000
     3.3363253549280394    0.0000000000000000    0.0000000000000000
    -1.6681626774640197    2.8893425126578158    0.0000000000000000
     0.0000000000000000    0.0000000000000000   39.5431775460103694
 W   Se  Ni  S  
   1   2   1   2
Cartesian
 -0.4932769552545722  1.1746112487659708 16.6792764021964111
  1.1748857222094475  2.1377254196519093 18.3585528043928221
  1.1748857222094475  2.1377254196519093 15.0000000000000018
  0.3184113117743390  0.9639869109969956 23.3677436177851092
  1.9865739892383589  1.9271010818829342 24.5431775460103694
  0.3184113117743390  2.8902152527688729 22.1923096895598562
