Cl Ag Cd I 
 1.0000000000000000
     4.3623298329122395    0.0000000000000000    0.0000000000000000
    -2.1811649151993637    3.7859591056937174    0.0000000000000000
    -0.0000000000000000    0.0000000000000000   40.6314085301249648
 Cl  Ag  Cd  I  
   2   2   1   2
Cartesian
  1.3116434344699395  0.7577148390349253 14.9999999999999982
  1.3071707317434713  3.2764860443303041 18.2868565417185991
  1.3071118101612145  0.7598591078262438 17.9775021923323379
  1.3117378655873864  3.2743231767920316 15.3080484603362645
  0.7898416348423409  0.0524804664369783 23.9108921083470705
  2.9710065517173789  1.3144668350015509 25.6314085301249719
  0.7898416356801785  2.5764532035661234 22.1903756865691513
