Ga Se Ga S  Ti
 1.0000000000000000
     3.8765719627808144   -0.0000000000000000    0.0000000000000000
    -1.9382859829045387    3.3580689638508594    0.0000000000000000
     0.0000000000000000    0.0000000000000000   41.9994435848081054
 Ga  Se  Ga  S   Ti 
   1   2   1   2   2
Cartesian
  0.7065417272201271  2.8663223815054342 18.6412241834118788
  2.6448868215684658  1.7469319597681658 15.0000000000000018
  0.7063605347993004  0.6277236171898730 19.8126831402394146
  0.7064196466951780  2.8664021588302506 16.1714585946549221
  1.1413218099091600  0.2990959422305691 23.7746952054669407
  1.1415307160880837  2.5372183917924138 26.9994435848081054
  1.1412540049166169  0.2991035785837466 26.2561419511725518
  1.1415985481764914  2.5372107589426971 24.5180381241481626
