Cd I  Ge I 
 1.0000000000000000
     4.3124059551467226    0.0000000000000000    0.0000000000000000
    -2.1562029775733613    3.7346531085883576    0.0000000000000000
     0.0000000000000000    0.0000000000000000   40.1180204691938940
 Cd  I   Ge  I  
   1   2   1   2
Cartesian
  0.5846609336611843  0.8517017772683693 16.7205164217779156
  2.7408639112345452  2.0965861467978217 18.4410328435558171
  0.5846609336611843  3.3414705163272744 15.0000000000000000
  0.6303401253886562  0.7828036842185103 23.3732445752126488
  2.7865431029620176  2.0276880537479625 25.1180204691938940
  0.6303401253886565  3.2725724232774143 21.6284686812314000
