Se Zn S  Zn
 1.0000000000000000
     3.9989656702067111    0.0000000000000000    0.0000000000000000
    -1.9994828328190828    3.4636249056813293    0.0000000000000000
     0.0000000000000000    0.0000000000000000   39.9938301572982056
 Se  Zn  S   Zn 
   2   2   2   2
Cartesian
  1.1673017508395223  0.7495153868193258 15.0000000000000000
  1.1674050707817889  3.0584677674081417 18.4133035906909832
  1.1672030756655531  0.7495692487619194 17.6556971816099200
  1.1675037171059699  3.0584139035191633 15.7579816020882397
  1.2152658685367166  0.7938660135754001 21.8730875153951310
  1.2153380032697876  3.1027478948636338 24.9938301572982056
  1.2151363581477415  0.7939154336379090 24.4545476044044783
  1.2154675289945993  3.1026986065172095 22.4125159198744264
