Ti I  Zr I 
 1.0000000000000000
     3.7989926224384050    0.0000000000000000    0.0000000000000000
    -1.8994963112192025    3.2900241198213234    0.0000000000000000
     0.0000000000000000    0.0000000000000000   41.5072589097140963
 Ti  I   Zr  I  
   1   2   1   2
Cartesian
  0.2149483830230999  1.4270726219932137 16.8143657812576173
  2.1144446942423021  2.5237473286003214 18.6287315661405408
  2.1144446942423021  2.5237473286003214 15.0000000000000000
  0.2737322515416621  1.4349618552289281 24.5681136731249659
  2.1732285627608645  2.5316365618360357 26.5072589097140963
  2.1732285627608645  2.5316365618360357 22.6289684371618698
