Hg Se Pb Cl
 1.0000000000000000
     4.4281508184723304   -0.0000000000000000    0.0000000000000000
    -2.2140754092361652    3.8348911005858923    0.0000000000000000
     0.0000000000000000    0.0000000000000000   36.9626702157172815
 Hg  Se  Pb  Cl 
   1   1   1   2
Cartesian
  2.9774180409965942  1.5157516756658052 15.3939973822751686
  0.7633426317604297  2.7940487091944362 15.0000000000000000
  0.5866260048038960  0.5390864631435901 20.4739381574974750
  2.8007014140400601  1.8173834966722204 21.9626702157172815
  0.5866260048038960  3.0956805302008510 18.9852060992777147
