Al S  Pd S 
 1.0000000000000000
     3.5686999541872151    0.0000000000000000    0.0000000000000000
    -1.7843499770936075    3.0905848188104903    0.0000000000000000
     0.0000000000000000    0.0000000000000000   41.2201204552103775
 Al  S   Pd  S  
   2   2   1   2
Cartesian
  2.0002233931731550  1.4647838155036905 16.0691806254428968
  2.0002233931731550  1.4647838155036905 18.6673481735629530
  0.2158734160795476  2.4949787551071867 15.0000000000000000
  0.2158734160795476  2.4949787551071867 19.7365287990058320
 -0.0080369198859871  0.4769283474131570 24.9750486218058541
  1.7763130572076202  1.5071232870166535 26.2201204552103846
 -0.0080369198859871  2.5373182266201502 23.7299767884013235
