Br Cd S  Zr
 1.0000000000000000
     4.1497764370586241    0.0014024937248978    0.0000000000000000
    -2.0736636118292626    3.6001313688981300    0.0000000000000000
     0.0000000000000033    0.0000000000000000   42.1053058546117143
 Br  Cd  S   Zr 
   2   2   2   2
Cartesian
  1.2219642879422161 -0.1272566768568523 15.0000000000000018
  1.2353897463945669  4.6490617955686524 20.7228492099078068
  1.2352138173400142  2.2491555546565087 19.2010592037222949
  1.2217218787857429  2.2729878630801656 16.5215258816321011
  1.2091469114106066  0.8792707988351558 23.7774441385000905
  1.2102452570280366  3.2793740718124047 27.1053058546117143
  1.2092163325370699  0.8791890458592618 26.4012527412418123
  1.2101758250284049  3.2794558277205059 24.4815352582025625
