Ca I  Sr Br
 1.0000000000000000
     4.3872584244990920    0.0000000000000000    0.0000000000000000
    -2.1936292122495460    3.7994772485835062    0.0000000000000000
     0.0000000000000000    0.0000000000000000   41.5024413870012978
 Ca  I   Sr  Br 
   1   2   1   2
Cartesian
  0.1657339194989633  1.6424933517573586 16.9490723290323331
  2.3593631317485091  2.9089857679518603 18.8981446580646448
  2.3593631317485091  2.9089857679518603 14.9999999999999964
  0.2827829613599335  1.6197976177049167 24.6996247875119224
  2.4764121736094795  2.8862900338994186 26.5024413870012978
  2.4764121736094795  2.8862900338994186 22.8968081880225469
