Hg F  Pd Se
 1.0000000000000000
     3.6969972407840750   -0.0000000000000000    0.0000000000000000
    -1.8484986203920357    3.2016935282399821    0.0000000000000000
     0.0000000000000002    0.0000000000000000   38.1354443833029180
 Hg  F   Pd  Se 
   1   2   1   2
Cartesian
  0.4984884251982784  0.7533099560971017 16.0286721523601869
  2.3469870455903061  1.8205411321770955 17.0573443047204023
  0.4984884251982766  2.8877723082570892 14.9999999999999982
  0.6155969549665051  0.7300887683833199 21.8223858589715078
  2.4640955753585425  1.7973199444633141 23.1354443833029180
  0.6155969549665063  2.8645511205433083 20.5093275753424322
