Hf S  Hf Se
 1.0000000000000000
     3.7123907712323332   -0.0000000000000000    0.0000000000000000
    -1.8561953856161666    3.2150247166621044    0.0000000000000000
    -0.0000000000000000    0.0000000000000000   39.4792807620767263
 Hf  S   Hf  Se 
   1   2   1   2
Cartesian
  0.7988124424431611  1.0158632206170886 16.4481043019908562
  2.6550078280593272  2.0875381261711237 17.8962086039820498
  0.7988124424431611  3.1592130317251583 15.0000000000000000
  0.7301274258634827  0.6689535767569037 22.9033917412972201
  2.5863228114796493  1.7406284823109384 24.4792807620767263
  0.7301274258634824  2.8123033878649730 21.3275027205200445
