S  Cd Tl Se Tl
 1.0000000000000000
     4.2723129943762590   -0.0000000000000000    0.0000000000000000
    -2.1361564959555892    3.7013973501453830    0.0000000000000000
     0.0000000000000000    0.0000000000000000   42.2901707480862967
 S   Cd  Tl  Se  Tl 
   2   2   1   2   1
Cartesian
  1.2483931625807385  0.2193530373752769 15.0000000000000000
  1.2487095647144866  2.6857301758672958 18.2374084038473541
  1.2480245993226451  0.2194228266144681 17.8133498455626693
  1.2490783523523361  2.6856604089466294 15.4239508926595690
  0.7344108986104393  3.2219673782185989 26.0060581516570721
  2.8704171654663959  1.9876137937079768 21.8272581579288527
  0.7343055962394476  0.7538741919613674 27.2901707480862967
  0.7341553618693206  3.2223897648493018 23.1113674109782963
