Pb O  Cl Pt
 1.0000000000000000
     3.6121308256800289    0.0000000000000002    0.0000000000000000
    -1.8060654118028725    3.1287648070221139    0.0000000000000000
    -0.0000000000000002    0.0000000000000000   37.9370970362963931
 Pb  O   Cl  Pt 
   1   1   2   2
Cartesian
  2.5264065330131134  0.9503214830963578 15.9428404019710097
  0.7203411205188135  1.9932430854370624 14.9999999999999982
 -0.6543501879622432  1.8531710915640751 18.7537669943168765
  2.9566716847923615  1.8543264279794838 22.9370970362963931
  1.1514229477532920  0.8112783332743924 21.5883141720402563
  1.1516386927548146  2.8966917273973580 20.1045511223818849
