Cd Cl Ru Br
 1.0000000000000000
     3.8399999497339854   -0.0000000000000000    0.0000000000000000
    -1.9199999748669931    3.3255375070005986    0.0000000000000000
     0.0000000000000000    0.0000000000000000   38.9891116286345039
 Cd  Cl  Ru  Br 
   1   2   1   2
Cartesian
  0.5242108586307209  0.8692144246958475 16.4378714166122748
  2.4442108334977126  1.9777269270293807 17.8757428332245674
  0.5242108586307208  3.0862394293629141 15.0000000000000000
  0.7161638768235976  0.7103630492141474 22.6722624746849029
  2.6361638516905894  1.8188755515476807 23.9891116286345039
  0.7161638768235974  2.9273880538812138 21.3554133207352983
