Zr I  Ru Br
 1.0000000000000000
     3.8047309764653816    0.0000000000000000    0.0000000000000000
    -1.9023654882326912    3.2949936801845938    0.0000000000000000
     0.0000000000000000    0.0000000000000000   40.3537204366169959
 Zr  I   Ru  Br 
   1   2   1   2
Cartesian
 -0.5502233289854741  1.3833958269961448 16.9391452359630961
  1.3521421592472165  2.4817270537243430 18.8782904725522300
  1.3521421592472165  2.4817270537243430 15.0000000000000000
  0.4549608266283137  0.9493037926485051 24.0368712826673914
  2.3573263148610035  2.0476350193767030 25.3537204366169959
  0.4549608266283134  3.1459662461049014 22.7200221287177868
