Ge Se Ni Se
 1.0000000000000000
     3.6039818082000958    0.0000000000000000    0.0000000000000000
    -1.8019909041000479    3.1211398006782591    0.0000000000000000
    -0.0000000000000000    0.0000000000000000   37.5295619966404388
 Ge  Se  Ni  Se 
   1   1   1   2
Cartesian
  1.9953902448346788  1.4237567367219301 16.4473597337136113
  0.1933993407346311  2.4641366702813499 15.0000000000000000
  0.5566165728207426  0.3564211197339919 21.2842210526236322
  2.3586074769207905  1.3968010532934116 22.5295619966404388
  0.5566165728207425  2.4371809868528311 20.0388801091454738
