Bi O  Cd Br
 1.0000000000000000
     4.0192000268797727    0.0000000000000000    0.0000000000000000
    -2.0096000134398868    3.4807293261689818    0.0000000000000000
     0.0000000000000000    0.0000000000000000   40.4947557217837897
 Bi  O   Cd  Br 
   2   2   1   2
Cartesian
  2.2160825140236713  1.2307423874217092 15.1279491455499411
  2.2160825140236713  1.2307423874217092 18.2805653489927202
  0.2064825005837846  2.3909854961447028 15.0000000000000000
  0.2064825005837846  2.3909854961447028 18.4085143927414876
  0.8206536802130651  0.0950755720937071 23.9281478710678357
  2.8302536936529514  1.2553186808167005 25.4947557217837897
  0.8206536802130651  2.4155617895396944 22.3615400203518995
