Pt Se Zr S 
 1.0000000000000000
     3.7152660021072603    0.0000000000000000    0.0000000000000000
    -1.8576330010536302    3.2175147396415369    0.0000000000000000
     0.0000000000000000    0.0000000000000000  -38.9148253794677075
 Pt  Se  Zr  S  
   1   2   1   2
Cartesian
  0.7773946090506216  0.9727178618487543 -22.6050166515703239
  2.6350276101042520  2.0452227750626002 -21.2952079297625758
  0.7773946090506214  3.1177276882764460 -23.9148253794677075
  0.8153991125222435  0.9499184383211348 -16.4458824427440646
  2.6730321135758737  2.0224233515349801 -15.0000000000000000
  0.8153991125222433  3.0949282647488254 -17.8917648854881897
