Hf Br Al S 
 1.0000000000000000
     3.5420973915605165    0.0000000000000000    0.0000000000000000
    -1.7710486957802583    3.0675463237700029    0.0000000000000000
     0.0000000000000000    0.0000000000000000   42.2807415911407247
 Hf  Br  Al  S  
   1   2   2   2
Cartesian
 -0.4070842523391833  1.2724024398043721 16.8486980501143826
  1.3639644434410749  2.2949178810610396 18.6973960898101090
  1.3639644434410749  2.2949178810610396 15.0000000000000036
  2.0375147875392448  1.2933939068100881 23.6133934175777895
  2.0375147875392448  1.2933939068100881 26.2115609656978421
  0.2664660917589866  2.3159093480667554 22.5442127921348856
  0.2664660917589866  2.3159093480667554 27.2807415911407247
