Zr Cl Ge S 
 1.0000000000000000
     3.4492277391353214   -0.0000000000000000    0.0000000000000000
    -1.7246138695676607    2.9871188455291522    0.0000000000000000
     0.0000000000000000    0.0000000000000000   38.6000321972348033
 Zr  Cl  Ge  S  
   1   2   1   1
Cartesian
 -0.1325385771970836  1.2608320566051843 16.7078992199188079
  1.5920752923705770  2.2565383384482351 18.4157984398376016
  1.5920752923705770  2.2565383384482351 15.0000000000000000
  2.1395314560394700  1.2528164463501248 23.6000321972348033
  0.4149175864718097  2.2485227281931754 22.2389995282318615
