Al Te Al Ge Br Ge Br
 1.0000000000000000
     4.1897595019007392   -0.0506467540195987    0.0000000000000001
    -2.0511024362529939    3.6539687102746070    0.0000000000000001
    -0.0000000000000024    0.0000000000000000  -42.6103532214796843
 Al  Te  Al  Ge  Br  Ge  Br 
   1   2   1   1   1   1   1
Cartesian
  0.5531345137434975  2.4051785227246025 -23.7789510187349649
  2.6334667506117753  1.1703102079267842 -27.6103532214796772
  0.5239236672338285 -0.0139514657756857 -22.5103073106926743
  0.5531534764739188  2.4051489281899698 -26.3417412522444607
  2.9402111838201397  3.4478105083330903 -18.0293486901658646
  0.8256809996750969  2.2611534676480542 -15.0000000000000000
  0.8301625830230646  2.2634278739381051 -17.3501246890710661
 -1.2495894062168098  3.4958021330179774 -20.3794909095427279
