Pb Br Ge Cl
 1.0000000000000000
     4.2701586107476377   -0.0000000000000002    0.0000000000000000
    -2.1350793053738188    3.6980658350973981    0.0000000000000000
     0.0000000000000010    0.0000000000000017   42.1621321467406034
 Pb  Br  Ge  Cl 
   1   2   2   2
Cartesian
 -0.2118535116301796  1.4995506205779849 16.8414801415537809
  1.9232257937436397  2.7322392322771174 18.6829602831084465
  1.9232257937436392  2.7322392322771174 15.0000000000000000
  1.2256168568855559  0.7911992761158552 24.3002805204987098
  1.2256168606152795  3.2565764995141224 24.9721185224121882
  1.2256168568855559  0.7911992761158547 22.1102668889432081
  1.2256168606152797  3.2565764995141224 27.1621321467406034
