Ti I  In S 
 1.0000000000000000
     3.8417291944756213    0.0000000000000000    0.0000000000000000
    -1.9208645972378107    3.3270350768762160    0.0000000000000000
     0.0000000000000000    0.0000000000000000   42.5172806821684475
 Ti  I   In  S  
   1   2   2   2
Cartesian
 -0.2995637997916402  1.2293069912460290 16.8143657812576173
  1.6213007974461702  2.3383186835381009 18.6287315661405373
  1.6213007974461702  2.3383186835381009 14.9999999999999982
  2.0648450972593975  1.3860530116712355 23.5206004429872877
  2.0648450972593975  1.3860530116712355 26.3395579512406925
  0.1439805000215869  2.4950647039633078 22.3428777120526334
  0.1439805000215869  2.4950647039633078 27.5172806821684475
