Ge Br Ge Br I  Cu
 1.0000000000000000
     4.2121059027122127   -0.0506467540195987    0.0000000000000001
    -2.0622756326286718    3.6734070860220420    0.0000000000000001
     0.0000000000000023   -0.0000000000000000   40.4189645640930877
 Ge  Br  Ge  Br  I   Cu 
   1   1   1   1   2   2
Cartesian
  2.0358412966632837  3.2816539194511001 22.3896158739272266
 -0.0898889060350797  2.0885040667020602 25.4189645640930877
 -0.0853835696325794  2.0907909452019355 23.0688398750220216
 -2.1763057424801886  3.3296313202247263 20.0394736545503633
  2.9540684760310634 -0.7662230134254159 14.9999999999999982
  2.9832533342680816  1.6658328049962590 18.8558029306399959
  2.9540684760310634 -0.7662230134254155 17.6212990317599960
  2.9832533342680816  1.6658328049962590 16.2370991544799992
