Cr Se W  Se
 1.0000000000000000
     3.2645863976691585    0.0000000000000000    0.0000000000000000
    -1.6322931988345792    2.8272147532306189    0.0000000000000000
     0.0000000000000000    0.0000000000000000   40.5038880413609448
 Cr  Se  W   Se 
   1   2   1   2
Cartesian
  0.2421985934497124  1.3678603934699216 16.5737644427049204
  1.8744917922842914  2.3102653112134615 18.1475288854098409
  1.8744917922842914  2.3102653112134615 15.0000000000000000
  0.3797179395215192  1.3176521875544305 23.8246116391645266
  2.0120111383560983  2.2600571052979701 25.5038880413609377
  2.0120111383560983  2.2600571052979701 22.1453352369681156
