Zr I  Zr S 
 1.0000000000000000
     3.7556666437688664    0.0000000000000000    0.0000000000000000
    -1.8778333218844332    3.2525027216496802    0.0000000000000000
    -0.0000000000000000    0.0000000000000000   40.5312053744152365
 Zr  I   Zr  S  
   1   2   1   2
Cartesian
 -0.3247929310260886  1.2531365177088316 16.9391452359630996
  1.5530403908583446  2.3373040915920580 18.8782904725522300
  1.5530403908583446  2.3373040915920580 15.0000000000000018
  0.3792876433243414  0.8625644391427533 24.0853229316711754
  2.2571209652087738  1.9467320130259798 25.5312053744152365
  0.3792876433243412  3.0308995869092064 22.6394404889270469
