Pb Cl Ge Cl
 1.0000000000000000
     4.2062718923351081   -0.0000000000000002    0.0000000000000000
    -2.1031359461675541    3.6427383139877252    0.0000000000000000
    -0.0000000000000010   -0.0000000000000017  -42.3640485353392648
 Pb  Cl  Ge  Cl 
   1   2   2   2
Cartesian
 -0.3762035249105452  1.5019655174507596 -16.7004028302812557
  1.7269324212570087  2.7162116221133346 -15.0000000000000018
  1.7269324212570087  2.7162116221133346 -18.4008056605625079
  1.5037015919707388  1.0972873064641155 -25.1740349037837632
  1.5037015956446613  3.5257795157892668 -24.5021969018702848
  1.5037015919707388  1.0972873064641151 -27.3640485353392684
  1.5037015956446615  3.5257795157892668 -22.3121832775418696
