Pd Se Zn Br
 1.0000000000000000
     3.7664823221012256    0.0000000000000000    0.0000000000000000
    -1.8832411610506132    3.2618693738446645    0.0000000000000000
     0.0000000000000000    0.0000000000000000   38.9579739910797755
 Pd  Se  Zn  Br 
   1   2   1   2
Cartesian
  0.6188897350401854  0.8214136997582958 16.3130582836290756
  2.5021308960907982  1.9087034910398506 17.6261168079604857
  0.6188897350401852  2.9959932823214053 15.0000000000000000
  0.6217250894676084  0.7944291124156511 22.4753753857481549
  2.5049662505182200  1.8817189036972057 23.9579739910797755
  0.6217250894676085  2.9690086949787604 20.9927767804165519
