Mo Te Ge Se
 1.0000000000000000
     3.6068041241743405    0.0000000000000000    0.0000000000000000
    -1.8034020620871702    3.1235839980094613    0.0000000000000000
    -0.0000000000000000    0.0000000000000000   39.0031162277549868
 Mo  Te  Ge  Se 
   1   2   1   1
Cartesian
 -0.1022698120170154  1.2770023371456720 22.1980162277549837
  1.7011322500701547  2.3181970031488262 24.0031162277549868
  1.7011322500701547  2.3181970031488262 20.3929162277549878
  2.0633174999127712  1.7742048495624856 16.4473597337136113
  0.2599154378256008  2.8153995155656393 15.0000000000000000
