Ge S  Ti Te
 1.0000000000000000
     3.5482670437342687   -0.0000000000000000    0.0000000000000000
    -1.7741335218671344    3.0728893992849864    0.0000000000000000
     0.0000000000000000    0.0000000000000000   40.6667162363493802
 Ge  S   Ti  Te 
   1   1   2   2
Cartesian
  1.8488896944382303  1.2733919148381023 16.3610326690029453
  0.0747561725710960  2.2976883812664308 15.0000000000000000
  1.9083234520121650  1.1657573480007470 21.5724383338947092
  1.9083234520121650  1.1657573480007470 23.9515547126439614
  0.1341899301450306  2.1900538144290755 19.8572797988371050
  0.1341899301450307  2.1900538144290755 25.6667162363493730
