Tl Se Hg Br
 1.0000000000000000
     4.1829404961802474    0.0000000000000000    0.0000000000000000
    -2.0914702480901237    3.6225327322107788    0.0000000000000000
     0.0000000000000000    0.0000000000000000   42.6435126384967162
 Tl  Se  Hg  Br 
   2   2   1   2
Cartesian
  2.2170400804720147  1.6321446026552571 16.2878300414387418
  2.2170400804720147  1.6321446026552571 19.1809988256016233
  0.1255698323818909  2.8396555133921830 15.0000000000000000
  0.1255698323818909  2.8396555133921830 20.4688289080443653
  0.0618845566853542  0.5813297906225041 26.0541050623659132
  2.1533548047754767  1.7888407013594303 27.6435126384967162
  0.0618845566853539  2.9963516120963565 24.4646974862351172
