Ge Br Ge Br Se Hf
 1.0000000000000000
     4.2564185380492443   -0.0506467540195987    0.0000000000000001
    -2.0844319502718758    3.7124868301126148    0.0000000000000001
     0.0000000000000024   -0.0000000000000000   42.2523312460975973
 Ge  Br  Ge  Br  Se  Hf 
   1   1   1   1   2   2
Cartesian
  4.0731923263671916  1.8648685279545516 24.2229825559317291
  1.9252526286075375  0.6586652474301526 27.2523312460975973
  1.9298050670171263  0.6609772005954482 24.9022065570265312
 -0.1832674438759678  1.9128173323670787 21.8728403365548658
  2.2085316588821127 -0.4422417777895937 15.0000000000000018
  2.2379733058729481  2.0152931724913454 18.6912765295358696
  2.2085920169214930 -0.4423096951233859 17.7686483511876148
  2.2379130234395546  2.0153611412655352 15.9230671053787383
