Pd O  Zn F 
 1.0000000000000000
     3.1193316744989024    0.0000000000000000    0.0000000000000000
    -1.5596658372494514    2.7014204729455011    0.0000000000000000
     0.0000000000000000    0.0000000000000000   37.5554520325994545
 Pd  O   Zn  F  
   1   2   1   2
Cartesian
  0.4814738324399616  0.6673897325115242 15.9790201188321674
  2.0411396696894126  1.5678632234933580 16.9580402376643349
  0.4814738324399614  2.4683367144751918 15.0000000000000000
  0.5677479651273647  0.6761600167039141 21.5596851282549693
  2.1274138023768150  1.5766335076857474 22.5554520325994545
  0.5677479651273647  2.4771069986675807 20.5639182239104699
