Ti Te Pt Se
 1.0000000000000000
     3.7425200220773198   -0.0000000000000000    0.0000000000000000
    -1.8712600110386599    3.2411174132908567    0.0000000000000000
     0.0000000000000000    0.0000000000000000   40.0664122667900955
 Ti  Te  Pt  Se 
   1   2   1   2
Cartesian
 -0.6472100843668976  1.4458274969181293 16.7885301883608946
  1.2240499266717624  2.5261999680150815 18.5770603767261022
  1.2240499266717624  2.5261999680150815 15.0000000000000000
  0.4192416095399367  0.9757181028386874 23.7566035449823474
  2.2905016205785969  2.0560905739356397 25.0664122667900955
  0.4192416095399365  3.1364630450325919 22.4467948170849638
