F  Pt Si S 
 1.0000000000000000
     3.3484119149695681    0.0000585085648159    0.0000000000000000
    -1.6739744854362200    2.9002616843279885    0.0000000000000000
    -0.0000000000000000    0.0000000000000021   40.2301182367727961
 F   Pt  Si  S  
   2   2   1   2
Cartesian
 -1.2695029182614546  1.6560431298075371 15.0000000000000018
  2.0786854938601129  1.6567403025127501 18.7933056562285969
  0.4044751358702416  0.6896754104726074 17.6544166225755887
  0.4047292683390122  2.6230331305635124 16.1389253694520782
  2.4972049210595428  1.0128546637452089 23.9044381910514758
  0.8234092259610188  1.9798555997048348 22.5782162832784579
 -0.8511201972760536  2.9469708063076192 25.2301182367727961
