Ni Se Zn Cl
 1.0000000000000000
     3.5703113367234485    0.0000000000000000    0.0000000000000000
    -1.7851556683617242    3.0919803170220828    0.0000000000000000
     0.0000000000000000    0.0000000000000000   38.6533891938961318
 Ni  Se  Zn  Cl 
   1   2   1   2
Cartesian
  0.5149275013852778  0.6364814306052463 16.2453409434781548
  2.3000831697470017  1.6671415362792739 17.4906818874949614
  0.5149275013852777  2.6978016419533013 14.9999999999999964
  0.6929886711488220  0.8955822122770354 22.2859222053140158
  2.4781443395105454  1.9262423179510626 23.6533891938961318
  0.6929886711488221  2.9569024236250896 20.9184552167318785
