Hf Te I  Pt
 1.0000000000000000
     3.9360179301750229    0.0000237985287992    0.0000000000000000
    -1.9679883463835643    3.4087243206213711    0.0000000000000000
    -0.0000000000000002   -0.0000000000000000   41.2068596884872633
 Hf  Te  I   Pt 
   1   2   2   2
Cartesian
 -0.3012628128676448  1.4462321315393580 16.8494380278571079
  1.6667530251211824  2.5824894374323479 18.6988761198817670
  1.6667530251211824  2.5824894374323479 15.0000000000000000
 -0.7490738692058643  1.8903145264643688 21.8103727110533718
  3.1867911506729767  1.8905081954472827 26.2068596884872633
  1.2187025309569128  0.7540987258799328 24.7179679945274948
  1.2187494360887099  3.0265545849424154 23.2984568300473782
