Tl Te Pb Cl
 1.0000000000000000
     4.4517619342454315    0.0000000000000000    0.0000000000000000
    -2.2258809671227162    3.8553389266570930    0.0000000000000000
    -0.0000000000000000    0.0000000000000000   41.8481743824541113
 Tl  Te  Pb  Cl 
   2   2   1   2
Cartesian
  2.5243270212401292  1.6526945457190045 22.5643276987405024
  2.5243270212401292  1.6526945457190045 25.4645518346377528
  0.2984460541174141  2.9378075212713686 21.1807051116924079
  0.2984460541174141  2.9378075212713686 26.8481743824541184
  0.2566088184111363  0.6681822110274483 16.4887320582197567
  2.4824897855338515  1.9532951865798123 17.9774641164395632
  0.2566088184111359  3.2384081621321759 14.9999999999999964
