Cl Ag Ge F 
 1.0000000000000000
     4.3253074056170444    0.0000000000000000    0.0000000000000000
    -2.1626537015517657    3.7538967431470192    0.0000000000000000
     0.0000000000000012    0.0000000000000022   41.1212067979809817
 Cl  Ag  Ge  F  
   2   2   2   2
Cartesian
  1.2337137820618940  0.9442603677719217 15.0000000000000000
  1.2292790384877141  3.4417007152049131 18.2868565417185991
  1.2292206169568403  0.9463864772748102 17.9775021923323379
  1.2338074117639537  3.4395561644633141 15.3080484603362663
  1.5194749075589813  0.9673903981892142 23.7472201759157038
  1.5194749121747120  3.4699882269538920 24.3403000611932256
  1.5194749075589813  0.9673903981892137 21.9663134703369920
  1.5194749121747120  3.4699882269538929 26.1212067979809817
