W  Se F  Pd
 1.0000000000000000
     3.3067164345258995   -0.0000000000000000    0.0000000000000000
    -1.6533582163220353    2.8654014190925663    0.0000000000000000
    -0.0000000000000012    0.0000000000000000   40.5313535240744827
 W   Se  F   Pd 
   1   2   2   2
Cartesian
 -0.1919044776875257  1.3843370081202113 16.6792764021964075
  1.4614537398890621  2.3394708144843999 18.3585528043928186
  1.4614537398890621  2.3394708144843999 15.0000000000000000
 -0.6898734216620646  1.6028754673669603 21.6494997463662457
  2.6151662139727399  1.6068570038146013 25.5313535240744827
  0.9625248038822916  0.6504642843431281 24.3987454760553959
  0.9626862613888023  2.5595425190635099 22.7820572126286542
