Pb Se Cl Cd
 1.0000000000000000
     4.0049256260019526    0.0012519794577290    0.0000000000000000
    -2.0013696308979978    3.4753582318962799    0.0000000000000000
     0.0000000000000032    0.0000000000000000   40.1702709235330389
 Pb  Se  Cl  Cd 
   1   1   2   2
Cartesian
  2.7542999784008004  1.6133862878777836 16.5482420467417022
  0.7522015594341503  2.7714217053572998 15.0000000000000000
  1.0424872896570392 -0.2292365322753374 19.6591166786841711
  1.0550602869251102  4.3816949705655324 25.1702709235330460
  1.0553749088990734  2.0648903009358106 23.7511563392085172
  1.0422316540200456  2.0875664049785541 21.0780678625937554
