Zr Te Hf Se
 1.0000000000000000
     3.7606409122965117   -0.0000000000000000    0.0000000000000000
    -1.8803204561482558    3.2568105645598662    0.0000000000000000
     0.0000000000000000    0.0000000000000000   42.9308496913648057
 Zr  Te  Hf  Se 
   2   2   1   2
Cartesian
  2.1502808481850173  1.4270476420604958 23.4337650742037340
  2.1502808481850173  1.4270476420604958 26.1126560891465616
  0.2699603920367615  2.5126511635804509 21.6155716374539111
  0.2699603920367616  2.5126511635804509 27.9308496913648057
  0.1970309358842074  0.5704066863484870 16.5758890207771756
  2.0773513920324631  1.6560102078684422 18.1517780415566783
  0.1970309358842073  2.7416137293883978 15.0000000000000000
