Cl Pd Zr S 
 1.0000000000000000
     3.6753058088557786   -0.0000057074165551    0.0000000000000000
    -1.8376578479325900    3.1828821508025937    0.0000000000000000
    -0.0000000000000001    0.0000000000000000   40.3492368209334202
 Cl  Pd  Zr  S  
   2   2   1   2
Cartesian
 -0.7444710013537883  1.7587575921989052 15.0000000000000000
  2.9308869123061649  1.7586632674413434 19.0602727285529099
  1.0929641542532558  0.6975799252989534 17.7820690337428502
  1.0929568064863511  2.8195247875626421 16.2762156910758335
  0.8724139883693596  0.1041777039590095 23.9033543781893592
  2.7100652449623484  1.1651346159488372 25.3492368209334202
  0.8724106926995590  2.2260972353552195 22.4574719354452306
