Sn Te Tl S 
 1.0000000000000000
     4.1151146426023235   -0.0000000000000000    0.0000000000000000
    -2.0575573213011618    3.5637938199789332    0.0000000000000000
    -0.0000000000000000    0.0000000000000000   40.4380730574849849
 Sn  Te  Tl  S  
   1   1   2   2
Cartesian
  2.0071006655078727  1.7207082440556074 16.6861605505646402
 -0.0504566557932892  2.9086395173819182 15.0000000000000000
  2.2799471388702397  1.4132545138818051 21.3543132492296941
  2.2799471388702397  1.4132545138818051 24.2402307410198325
  0.2223898175690781  2.6011857872081161 20.1564709327650178
  0.2223898175690781  2.6011857872081161 25.4380730574849849
