F  Pd F  Pt
 1.0000000000000000
     3.3432238160660379    0.0000585085648160    0.0000000000000000
    -1.6715611758013664    2.8971727790288240    0.0000000000000000
    -0.0000000000000024   -0.0000000000000000   39.3984103859518058
 F   Pd  F   Pt 
   2   2   2   2
Cartesian
 -0.6965207614907193  2.2705587615220995 20.5165566082435724
  2.6450078136918767  2.2746429644979123 24.3984103859518093
  0.9741036939340773  1.3076068270988745 23.2658023379327226
  0.9743007337875196  3.2378722742764499 21.6491140745059809
 -0.5681401812684522  1.0929145759367838 15.0000000000000000
  2.7748604385281097  1.0936110684395079 18.7933056562285934
  1.1033042807810429  0.1275761011803977 17.6544166225755852
  1.1034377759253324  2.0588747316738152 16.1389253694520747
