Pb Te I  In
 1.0000000000000000
     4.4013069891171384   -0.0000000000000000    0.0000000000000000
    -2.2006534932794124    3.8131077405884399    0.0000000000000000
     0.0000000000000000    0.0000000000000000   41.9055460886513558
 Pb  Te  I   In 
   1   1   2   2
Cartesian
  2.5410047098345254  1.3311802653984024 16.6845068820464775
  0.3403512157023419  2.6022161789278822 15.0000000000000000
  1.5227590564316431  1.3509839654923428 20.5530815157717193
  1.5228187169942340  3.8925018409812475 26.9055460886513558
  1.5220374231406761  1.3514184359824646 25.0468716891850214
  1.5235404829185328  3.8920678214384745 22.4125645169719512
