Ti Te Cd F 
 1.0000000000000000
     3.5601509672870337   -0.0000000000000000    0.0000000000000000
    -1.7800754836435146    3.0831811789783181    0.0000000000000000
    -0.0000000000000002    0.0000000000000000  -41.3723749384229862
 Ti  Te  Cd  F  
   2   2   1   2
Cartesian
  2.0097619279926691  1.3299310596417633 -19.0942779024546638
  2.0097619279926691  1.3299310596417633 -16.7151615237054116
  0.2296864443491530  2.3576581193012021 -20.8094364375122680
  0.2296864443491531  2.3576581193012021 -15.0000000000000018
  0.1824730158254271  0.5881871310451807 -25.3552132563938493
  1.9625484994689431  1.6159141907046199 -24.3380515743646697
  0.1824730158254255  2.6436412503640598 -26.3723749384229933
