Cr Te Ni Se
 1.0000000000000000
     3.5059577779612661    0.0000000000000000    0.0000000000000000
    -1.7529788889806330    3.0362485003100987    0.0000000000000000
     0.0000000000000000    0.0000000000000000   39.7185923810463564
 Cr  Te  Ni  Se 
   1   2   1   2
Cartesian
 -0.4940720679962702  1.2284259637820514 16.7062363127964844
  1.2589068209843628  2.2405087972187507 18.4124726255929652
  1.2589068209843628  2.2405087972187507 15.0000000000000000
  0.3344466308046662  0.9850206999515305 23.4732514370295462
  2.0874255197852989  1.9971035333882299 24.7185923810463564
  0.3344466308046661  3.0091863668249292 22.2279104935513914
