Sr I  Ag
 1.0000000000000000
     4.6052802557902641    0.0000000000000000    0.0000000000000000
    -2.3026401265884768    3.9907198987261707    0.0000000000000000
     0.0000000000000000    0.0000000000000000   42.0346823270922769
 Sr  I   Ag 
   1   4   2
Cartesian
 -0.3112254287109610  1.5847438027722527 25.0317973164131260
  1.9914146996197226  2.9149837690143094 27.0346823270922769
  1.9914146996197226  2.9149837690143094 23.0289123057341243
  1.6654752918490126  1.1602204369419520 15.0000000000000036
  1.6652123614330205  3.8193034899129632 19.1467191956345992
  1.6637267066677808  1.1612084618269445 17.9021344705961063
  1.6669764017624191  3.8183086354103466 16.2436090111161775
