Ge Te Mg Br
 1.0000000000000000
     3.9134936341162736   -0.0000000000000000    0.0000000000000000
    -1.9567468170581370    3.3891849046933720    0.0000000000000000
     0.0000000000000000    0.0000000000000000   38.1423356685662469
 Ge  Te  Mg  Br 
   1   1   1   2
Cartesian
  2.1660091922065967  1.5098499670866714 16.5598212339094246
  0.2092623751484604  2.6395782686511282 14.9999999999999964
  0.6146486418515886  0.1793577025708474 21.6353100201504844
  2.5713954589097234  1.3090860041353056 23.1423356685662469
  0.6146486418515884  2.4388143056997640 20.1282843717347255
