In S  Sn Se
 1.0000000000000000
     3.8896878220470494    0.0000000000000000    0.0000000000000000
    -1.9448439110235247    3.3685684666837097    0.0000000000000000
     0.0000000000000000    0.0000000000000000   42.3416726013081046
 In  S   Sn  Se 
   2   2   1   2
Cartesian
  2.1618946085751900  1.4617710188563642 16.1777227309346578
  2.1618946085751900  1.4617710188563642 18.9966802391880591
  0.2170506975516655  2.5846271744176006 15.0000000000000000
  0.2170506975516655  2.5846271744176006 20.1744029701158176
  0.0144970508761380  0.6601680300569340 25.7487415817338920
  1.9593409618996622  1.7830241856181703 27.3416726013080975
  0.0144970508761380  2.9058803411794072 24.1558105621596262
