Ge Se Cl Pt
 1.0000000000000000
     3.6487818519686552    0.0000000000000002    0.0000000000000000
    -1.8243909249471857    3.1605055268628353    0.0000000000000000
     0.0000000000000002    0.0000000000000000  -37.8987896141321556
 Ge  Se  Cl  Pt 
   1   1   2   2
Cartesian
  2.5963930718275048  0.9849361281673473 -21.4514298804185479
  0.7720021461888913  2.0384379704549596 -22.8987896141321592
 -0.6877501662865265  1.7856247217165346 -19.1833300419795236
  2.9599114805997924  1.7867917787986423 -15.0000000000000071
  1.1363455169432182  0.7331621609058292 -16.3487828642561439
  1.1365634510266895  2.8397316745767975 -17.8325459139145153
