Tl Se Tl S 
 1.0000000000000000
     4.1400492309999084    0.0000000000000000    0.0000000000000000
    -2.0700246154999542    3.5853878069641492    0.0000000000000000
     0.0000000000000000    0.0000000000000000   44.7396248993644363
 Tl  Se  Tl  S  
   2   2   2   2
Cartesian
  2.1726497684991117  1.4482196779984646 16.2878300414387418
  2.1726497684991117  1.4482196779984646 19.1809988256016233
  0.1026251529991573  2.6433489469865146 15.0000000000000000
  0.1026251529991573  2.6433489469865146 20.4688289080443653
  2.4271102102475881  1.6037592953333486 25.6558650911091561
  2.4271102102475881  1.6037592953333486 28.5417825828992946
  0.3570855947476337  2.7988885643213983 24.4580227746444763
  0.3570855947476337  2.7988885643213983 29.7396248993644434
