Ge F  Tl Se Tl
 1.0000000000000000
     4.2397295727755244   -0.0000000000000000    0.0000000000000000
    -2.1198647863877622    3.6717135152004516    0.0000000000000000
     0.0000000000000013    0.0000000000000023   43.0753450256107442
 Ge  F   Tl  Se  Tl 
   2   2   1   2   1
Cartesian
  1.1854920540007652  0.6675407252605479 16.7809067055787118
  1.1854920577039112  3.1153497353941808 17.3739865908562336
  1.1854920540007652  0.6675407252605473 15.0000000000000018
  1.1854920577039112  3.1153497353941817 19.1548933276439897
  0.7589696764049139  3.2536088280708051 26.7912324291815231
  2.8786853786220603  2.0291543018347178 22.6124324354533037
  0.7588651779534877  0.8053088344484286 28.0753450256107442
  0.7587160885520869  3.2540278273172736 23.8965416885027437
