Hf Cl In O 
 1.0000000000000000
     3.3948302155834584    0.0000000000000000    0.0000000000000000
    -1.6974151077917292    2.9400092082302773    0.0000000000000000
     0.0000000000000000    0.0000000000000000   41.8332282781568239
 Hf  Cl  In  O  
   1   2   2   2
Cartesian
 -0.8082017139567089  1.5683840190689904 16.7299570918342511
  0.8892133938350204  2.5483870884790827 18.4599141836685092
  0.8892133938350204  2.5483870884790827 14.9999999999999982
  1.9331064579832022  1.3897773056398943 23.1922934585032081
  1.9331064579832022  1.3897773056398943 26.0425586561244842
  0.2356913501914732  2.3697803750499866 22.4016238334840025
  0.2356913501914732  2.3697803750499866 26.8332282781568239
