I  In Cd I 
 1.0000000000000000
     4.4015461012257049   -0.0000000000000000    0.0000000000000000
    -2.2007730493336961    3.8133148177488190    0.0000000000000000
     0.0000000000000000    0.0000000000000000   43.7359983572106259
 I   In  Cd  I  
   2   2   1   2
Cartesian
  1.2529300743264855  0.5979841333002488 15.0000000000000000
  1.2529897381302404  3.1396400301461447 21.3524645728796365
  1.2522084018309692  0.5984186273850134 19.4937901734133021
  1.2537115432662944  3.1392059870332174 16.8594830012002319
  0.7847403707911785  0.1162614640034982 27.0154819354327209
  2.9855134218304160  1.3873664032531048 28.7359983572106259
  0.7847403716439496  2.6584713425027116 25.2949655136548053
