Si F  S  Ti
 1.0000000000000000
     3.9311105190212956    0.0000000000000000    0.0000000000000000
    -1.9655552583892828    3.4052872982630698    0.0000000000000000
     0.0000000000000012    0.0000000000000022   40.5682725047138106
 Si  F   S   Ti 
   2   2   2   2
Cartesian
  1.3230160948836094  0.9194489143245467 16.6424290354395517
  1.3230160936758630  3.1896404464999262 17.3462560958598786
  1.3230160948836094  0.9194489143245462 15.0000000000000018
  1.3230160936758630  3.1896404464999262 18.9886851313004499
  1.3374957710160977  1.0111854049375812 22.3435241253726531
  1.3377076180164145  3.2807784453111455 25.5682725047138142
  1.3374270120914700  1.0111931486667185 24.8249708710782642
  1.3377764044181124  3.2807707051347323 23.0868670440538715
