Ti Br Ni Se
 1.0000000000000000
     3.5068957665866876    0.0000000000000000    0.0000000000000000
    -1.7534478832933438    3.0370608222881739    0.0000000000000000
     0.0000000000000000    0.0000000000000000   39.7409476231632297
 Ti  Br  Ni  Se 
   1   2   1   2
Cartesian
 -0.5747862273508282  1.3902431970151501 16.6938534583278368
  1.1786616559425158  2.4025968044445412 18.3877069173080017
  1.1786616559425158  2.4025968044445412 14.9999999999999982
  0.3155482967522803  0.9528390083691387 23.4956066791464337
  2.0689961800456240  1.9651926157985300 24.7409476231632368
  0.3155482967522801  2.9775462232279213 22.2502657356682718
