Hf Cl Pb O 
 1.0000000000000000
     3.3757967926964980    0.0000000000000000    0.0000000000000000
    -1.6878983963482490    2.9235257804891974    0.0000000000000000
     0.0000000000000000    0.0000000000000000   39.4977750702231418
 Hf  Cl  Pb  O  
   1   2   1   2
Cartesian
 -0.6712761570955443  1.3904344307228993 16.7299570918342511
  1.0166222392527047  2.3649430242192984 18.4599141836685092
  1.0166222392527047  2.3649430242192984 14.9999999999999964
  0.3963949385984202  0.9077747497972035 23.4391559140784622
  2.0842933349466692  1.8822833432936026 24.4977750702231418
  0.3963949385984202  2.8567919367900014 22.3805367579337826
