Pt S  Zr S 
 1.0000000000000000
     3.6279519739034574    0.0000000000000000    0.0000000000000000
    -1.8139759869517287    3.1418985731102929    0.0000000000000000
     0.0000000000000000    0.0000000000000000  -38.7338107325624463
 Pt  S   Zr  S  
   1   2   1   2
Cartesian
  0.6742203243097509  0.8118779144450190 -22.5017833630619748
  2.4881963112614791  1.8591774388151165 -21.2697559935615068
  0.6742203243097507  2.9064769631852139 -23.7338107325624463
  0.8005775237473021  1.0843592329178049 -16.4458824427440682
  2.6145535106990301  2.1316587572879024 -15.0000000000000053
  0.8005775237473020  3.1789582816579998 -17.8917648854881932
