Cr Se S  Ir
 1.0000000000000000
     3.2447366956228842    0.0000000000000000    0.0000000000000000
    -1.6223683468748460    2.8103427686760916    0.0000000000000000
    -0.0000000000000000    0.0000000000000000   41.4716855513938683
 Cr  Se  S   Ir 
   1   2   2   2
Cartesian
 -0.4693951341267945  1.2898953142230487 16.5737644427049204
  1.1529732139968463  2.2266762371150790 18.1475288854098444
  1.1529732139968463  2.2266762371150790 15.0000000000000000
  1.0028272782618370  0.6502374533579141 21.8213917733737155
  1.0026807364088470  2.5239409193041502 26.4716855513938683
  1.0026388455407274  0.6505822543327944 25.2190172409193210
  1.0028694118907475  2.5235958556213633 23.0740762323880411
