Ti Br Ni S 
 1.0000000000000000
     3.4128439693396908    0.0000000000000000    0.0000000000000000
    -1.7064219846698454    2.9556095766006920    0.0000000000000000
     0.0000000000000000    0.0000000000000000   39.5655826401223294
 Ti  Br  Ni  S  
   1   2   1   2
Cartesian
 -0.4980623497179578  1.2034322214890278 16.6938534583278368
  1.2083596349518877  2.1886354136892585 18.3877069173080017
  1.2083596349518877  2.1886354136892585 15.0000000000000000
  0.3255781500580847  0.9744368957544582 23.3901487118970728
  2.0320001347279302  1.9596400879546889 24.5655826401223294
  0.3255781500580847  2.9448432801549198 22.2147147836718162
