Pd Se Sn S 
 1.0000000000000000
     3.7154068008103840    0.0000000000000000    0.0000000000000000
    -1.8577034004051920    3.2176366748952621    0.0000000000000000
     0.0000000000000000    0.0000000000000000   38.9673370208974674
 Pd  Se  Sn  S  
   1   2   1   2
Cartesian
  0.5969373818217432  0.8551941607469700 16.3130582836290756
  2.4546407822269347  1.9277397190453907 17.6261168079604857
  0.5969373818217432  3.0002852773438113 15.0000000000000000
  0.5739762041421741  0.7833690964238654 22.4897656181130436
  2.4316796045473663  1.8559146547222860 23.9673370208974674
  0.5739762041421741  2.9284602130207067 21.0121942153286199
