Br Hg Zn I 
 1.0000000000000000
     4.1395865237782914    0.0010674728082233    0.0000000000000000
    -2.0688611839243167    3.5914848411521945    0.0000000000000000
     0.0000000000000035    0.0000000000000000   42.6052600458882651
 Br  Hg  Zn  I  
   2   2   1   2
Cartesian
  1.1717667843952568 -0.3839521238603130 14.9999999999999982
  1.1822909785656472  4.3832383927399388 20.7696522731609790
  1.1867441914314067  1.9860364849802099 19.2178916173209373
  1.1678639766111123  2.0129340349488434 16.5512692941072075
  0.7104535659581257  0.2707502647664032 25.9778542773758794
  2.7805575205022137  1.4686235270226171 27.6052600458882651
  0.7110749512680112  2.6654293164706075 24.3504485088634937
