Mo O  Ti H 
 1.0000000000000000
     2.8053079768079296    0.0000000000000000    0.0000000000000000
    -1.4026539884039648    2.4294679733547935    0.0000000000000000
    -0.0000000000000000    0.0000000000000000   38.7173848051644640
 Mo  O   Ti  H  
   1   2   1   2
Cartesian
  0.2200656478571044  1.0247669311364818 16.2250003583693214
  1.6227196362610692  1.8345895889214130 17.4500007167386428
  1.6227196362610692  1.8345895889214130 15.0000000000000000
  0.2440513479595459  1.1511936522507149 22.5829884544666157
  1.6467053341614561  1.9610163132043381 23.7173848051644640
  1.6467053341614561  1.9610163132043381 21.4485921242318618
