Hg Se Br Ag
 1.0000000000000000
     4.4489338324360173   -0.0000000000000000    0.0000000000000000
    -2.2244669149516154    3.8553172111863421    0.0000000000000000
    -0.0000000000000000    0.0000000000000000  -37.9794723915318357
 Hg  Se  Br  Ag 
   1   1   2   2
Cartesian
  2.5490682159867486  1.7702497725007573 -22.5854750092566618
  0.3246013001908715  3.0553555095628715 -22.9794723915318286
  1.8242753477867262  0.5631319901618411 -18.8414998721338058
  1.8271326229478504  3.1306759490979239 -15.0000000000000018
  1.8231353078495682  0.5639175028534507 -16.0164839579147937
  1.8282789116518408  3.1298810239445229 -17.8241971258848508
