Ge Se Ru Br
 1.0000000000000000
     3.7233082027118889    0.0000000000000000    0.0000000000000000
    -1.8616541013559447    3.2244794896674760    0.0000000000000000
    -0.0000000000000000    0.0000000000000000   37.7086947456658095
 Ge  Se  Ru  Br 
   1   1   1   2
Cartesian
  2.0135358487520700  1.1658329773682024 16.4473597337136113
  0.1518817473961261  2.2406594739240280 15.0000000000000000
  0.7627219023352990  0.1472895298498491 21.3918455917162085
  2.6243760036912431  1.2221160264056747 22.7086947456658095
  0.7627219023352989  2.2969425229615004 20.0749964377666039
