Pb Se Sn F 
 1.0000000000000000
     4.9196138346380520   -0.0000000000000000    0.0000000000000000
    -2.4598069173190260    4.2605105576040394    0.0000000000000000
     0.0000000000000012    0.0000000000000021   39.9999007990943412
 Pb  Se  Sn  F  
   1   2   2   2
Cartesian
 -0.2847027808265778  1.8486690570830078 16.2130084440828348
  2.1751041364924486  3.2688392429510214 17.4260168881656696
  2.1751041364924486  3.2688392429510214 15.0000000000000000
  1.3766839923931626  0.8749771195237355 22.4874478504553252
  1.3766839956945407  3.7153174912597615 23.0425942030425439
  1.3766839923931624  0.8749771195237354 20.5301412704596800
  1.3766839956945409  3.7153174912597624 24.9999007990943340
