In Se Mg I 
 1.0000000000000000
     4.1408066442065135   -0.0000000000000000    0.0000000000000000
    -2.0704033221032567    3.5860437460422352    0.0000000000000000
     0.0000000000000000    0.0000000000000000   42.7033859566591829
 In  Se  Mg  I  
   2   2   1   2
Cartesian
  2.3709002287056542  1.6556185523238831 16.2765302461401262
  2.3709002287056542  1.6556185523238831 19.0907759595263933
  0.3004969066023979  2.8509664676712951 15.0000000000000000
  0.3004969066023979  2.8509664676712951 20.3673061832687665
  0.0003989631241079  0.5354491979983139 26.0290682999913230
  2.0708022852273631  1.7307971133457267 27.7033859566591829
  0.0003989631241079  2.9261450286931390 24.3547506433234560
