Ti Te Cl Pd
 1.0000000000000000
     3.7025598288258381   -0.0000057074165551    0.0000000000000000
    -1.8512848579176198    3.2064848244519135    0.0000000000000000
    -0.0000000000000001    0.0000000000000000   40.7446504167923962
 Ti  Te  Cl  Pd 
   1   2   2   2
Cartesian
 -0.3867101528729088  1.4369389276636837 16.7885301883608946
  1.4645681137051099  2.5057633975366178 18.5770603767261022
  1.4645681137051099  2.5057633975366178 15.0000000000000018
 -0.9551147894863286  1.8086534919732133 21.6843776882394792
  2.7474975305228586  1.8085585100734622 25.7446504167923926
  0.8959457491799193  0.7396066725007633 24.4664467219823329
  0.8959383713652119  2.8772868383719223 22.9605933793153127
