Cl Ag Se Hf
 1.0000000000000000
     4.3329495115507042    0.0000000000000000    0.0000000000000000
    -2.1664747533003026    3.7612188751370401    0.0000000000000000
    -0.0000000000000000    0.0000000000000000   40.6573086771234387
 Cl  Ag  Se  Hf 
   2   2   2   2
Cartesian
  1.2284043214596059  0.9479088383422738 15.0000000000000000
  1.2239617432328480  3.4502205472197409 18.2868565417185991
  1.2239032176723936  0.9500390949103241 17.9775021923323379
  1.2284981173982810  3.4480718134425752 15.3080484603362663
  1.5193630386904091  1.0127058815962209 21.9660321475875726
  1.5196313247827331  3.5196027831610315 25.6573086771234387
  1.5194252940546247  1.0126373424685153 24.7346804987751838
  1.5195691457513978  3.5196713756724534 22.8890992529663038
