Sn S  Zr S 
 1.0000000000000000
     3.6891139221049061    0.0000000000000000    0.0000000000000000
    -1.8445569610524530    3.1948663739976952    0.0000000000000000
    -0.0000000000000000    0.0000000000000000   39.1898419874645185
 Sn  S   Zr  S  
   1   2   1   2
Cartesian
  0.6273548513384288  0.6676162903050723 16.4775714027844238
  2.4719118123908821  1.7325717483043039 17.9551428055688476
  0.6273548513384288  2.7975272063035357 15.0000000000000000
  0.5154780540555544  0.6012086393975371 22.7439595447204610
  2.3600350151080072  1.6661640973967686 24.1898419874645185
  0.5154780540555541  2.7311195553959999 21.2980771019763324
