Br Hg I  Cu
 1.0000000000000000
     4.1781337118023210    0.0010674728082233    0.0000000000000000
    -2.0881347767433498    3.6248676831591538    0.0000000000000000
     0.0000000000000035    0.0000000000000000   42.2240923541813657
 Br  Hg  I   Cu 
   2   2   2   2
Cartesian
  1.3575425239119177 -0.2498674560394761 15.0000000000000036
  1.3681532004121066  4.5616274772693171 20.7696522731609861
  1.3726536724524143  2.1421468828860220 19.2178916173209444
  1.3535975830032057  2.1692944536244241 16.5512692941072146
  1.3171556518704488  1.0081129581604897 23.3682894235413627
  1.3177770170880947  3.4250472499486673 27.2240923541813657
  1.3171556518704493  1.0081129581604900 25.9895884553013587
  1.3177770170880945  3.4250472499486664 24.6053885780213619
