W  Se Hf O 
 1.0000000000000000
     3.2867173417820101    0.0000000000000000    0.0000000000000000
    -1.6433586708910051    2.8463807130420822    0.0000000000000000
     0.0000000000000000    0.0000000000000000   39.1922113987400778
 W   Se  Hf  O  
   1   2   1   2
Cartesian
 -0.5329775767186707  1.1824470822265361 16.6792764021964075
  1.1103810941723342  2.1312406532405634 18.3585528043928150
  1.1103810941723342  2.1312406532405634 14.9999999999999982
  0.4413621899964872  0.8915003877787088 23.2197818070066120
  2.0847208608874923  1.8402939587927363 24.1922113987400706
  0.4413621899964872  2.7890875298067637 22.2473522152731533
