Zr Te Al Se
 1.0000000000000000
     3.8501216612273428   -0.0000000000000000    0.0000000000000000
    -1.9250608306136714    3.3343031662836227    0.0000000000000000
    -0.0000000000000000    0.0000000000000000   42.4341857810958842
 Zr  Te  Al  Se 
   1   2   2   2
Cartesian
 -0.5698078057419348  1.5318994679313498 16.8615645620742107
  1.3552530248717369  2.6433338566925575 18.7231291241485991
  1.3552530248717369  2.6433338566925575 15.0000000000000000
  2.0000543477897477  1.4383722331855449 23.6788539653233769
  2.0000543477897477  1.4383722331855449 26.2667064482595691
  0.0749935171760766  2.5498066219467521 22.5113746324871045
  0.0749935171760766  2.5498066219467521 27.4341857810958771
