Ge F  Se Zr
 1.0000000000000000
     4.2879119083564152   -0.0000000000000000    0.0000000000000000
    -2.1439559529428123    3.7140475444297865    0.0000000000000000
     0.0000000000000012    0.0000000000000022   41.0239505338207380
 Ge  F   Se  Zr 
   2   2   2   2
Cartesian
  1.2487767245037584  0.9008340721707729 16.7809067055787118
  1.2487767290725860  3.3768657684572956 17.3739865908562336
  1.2487767245037584  0.9008340721707724 15.0000000000000018
  1.2487767290725860  3.3768657684572965 19.1548933276439897
  1.2876188392096026  0.9893393502334769 22.3645234328624127
  1.2878967954281673  3.4648613941557014 26.0239505338207380
  1.2876167231408462  0.9893025939268981 25.1384194572724127
  1.2878989245167300  3.4648981279334738 23.2502741885481967
