Cr Te Ge S 
 1.0000000000000000
     3.4792543280244881   -0.0000000000000000    0.0000000000000000
    -1.7396271640122440    3.0131226342961623    0.0000000000000000
     0.0000000000000000    0.0000000000000000   38.6222540586334659
 Cr  Te  Ge  S  
   1   2   1   1
Cartesian
 -0.3662681980947048  1.2726539517641280 16.7062363127964844
  1.3733589659175391  2.2770281631961815 18.4124726255929652
  1.3733589659175391  2.2770281631961815 15.0000000000000000
  2.0254107761363929  1.2516879428440091 23.6222540586334659
  0.2857836121241491  2.2560621542760630 22.2612213896305242
