In Se Cd Br
 1.0000000000000000
     4.0681604530005240   -0.0000000000000000    0.0000000000000000
    -2.0340802265002624    3.5231302989696629    0.0000000000000000
     0.0000000000000000    0.0000000000000000   42.4873512470391645
 In  Se  Cd  Br 
   2   2   1   2
Cartesian
  2.3359428954685590  1.6380522187587117 16.2765302461401262
  2.3359428954685590  1.6380522187587117 19.0907759595263897
  0.3018626689682969  2.8124289850819326 14.9999999999999964
  0.3018626689682969  2.8124289850819326 20.3673061832687665
 -0.0087220791737002  0.5242130929668775 25.9207433963232106
  2.0253581473265618  1.6985898592900979 27.4873512470391574
 -0.0087220791737003  2.8729666256133188 24.3541355456072708
