Ga Te Pt Te
 1.0000000000000000
     4.0730182968805195   -0.0000000000000000    0.0000000000000000
    -2.0365091484402598    3.5273373151773582    0.0000000000000000
     0.0000000000000000    0.0000000000000000   41.7829962041864604
 Ga  Te  Pt  Te 
   2   2   1   2
Cartesian
  2.2556526377511372  1.5281177045797163 16.2730454743835011
  2.2556526377511372  1.5281177045797163 18.7468688976248288
  0.2191434893108780  2.7038968096388354 14.9999999999999964
  0.2191434893108779  2.7038968096388354 20.0199143598030744
  0.1325642766888305  0.6484249629318172 25.3957819746329534
  2.1690734251290897  1.8242040679909366 26.7829962041864604
  0.1325642766888305  2.9999831730500559 24.0085677460359221
