Cr Te Hf Br
 1.0000000000000000
     3.4851787236965635    0.0000000000000000    0.0000000000000000
    -1.7425893618482817    3.0182533114502506    0.0000000000000000
     0.0000000000000000    0.0000000000000000   41.1106238864126681
 Cr  Te  Hf  Br 
   1   2   1   2
Cartesian
  0.2547434183619433  1.3905773020732712 16.7062363127964844
  1.9973327802102250  2.3966617392233549 18.4124726255929652
  1.9973327802102250  2.3966617392233549 15.0000000000000000
  0.3534356118433650  1.4395726875831760 24.2619258467169416
  2.0960249736916468  2.4456571247332599 26.1106238864126681
  2.0960249736916468  2.4456571247332599 22.4132277966025626
