Bi O  Sn Se
 1.0000000000000000
     3.9205824893609478    0.0000000000000000    0.0000000000000000
    -1.9602912446804739    3.3953240334190138    0.0000000000000000
     0.0000000000000000    0.0000000000000000   40.5481050570034824
 Bi  O   Sn  Se 
   2   2   1   2
Cartesian
  2.1668442302471820  1.1972550776056181 15.1279491455499393
  2.1668442302471820  1.1972550776056181 18.2805653489927167
  0.2065529855667080  2.3290297554119563 15.0000000000000000
  0.2065529855667080  2.3290297554119563 18.4085143927414876
  0.8084945496125239  0.0583803549854763 23.9551740374292770
  2.7687857942929979  1.1901550327918140 25.5481050570034824
  0.8084945496125239  2.3219297105981518 22.3622430178550111
