Ti Br W  Te
 1.0000000000000000
     3.5110600376813004    0.0000000000000000    0.0000000000000000
    -1.7555300188406502    3.0406671868443542    0.0000000000000000
     0.0000000000000000    0.0000000000000000   40.9955651295761072
 Ti  Br  W   Te 
   1   2   1   2
Cartesian
  0.2172647661470256  0.9719975483241150 16.6938534583278368
  1.9727947849876757  1.9855532772722333 18.3877069173080017
  1.9727947849876757  1.9855532772722333 14.9999999999999964
  0.1780279373264921  1.3360737199799018 24.1836029163426431
  1.9335579561671428  2.3496294489280194 25.9955651295761072
  1.9335579561671428  2.3496294489280194 22.3716407031091791
