Pb O  Sn S 
 1.0000000000000000
     3.6444349623189645   -0.0000000000000000    0.0000000000000000
    -1.8222174811594822    3.1561732598084062    0.0000000000000000
     0.0000000000000000    0.0000000000000000  -37.4905062049087761
 Pb  O   Sn  S  
   1   1   1   2
Cartesian
  2.2517951387757025  1.5611046121602319 -21.5476658029377788
  0.4295776576162208  2.6131623654297007 -22.4905062049087903
  0.6592228735226822  0.2005563885756571 -16.4775714027844309
  2.4814403546821646  1.2526141418451258 -15.0000000000000071
  0.6592228735226822  2.3046718951145948 -17.9551428055688547
