Pb Se S  Zr
 1.0000000000000000
     4.1365536993976697    0.0000000000000000    0.0000000000000000
    -2.0682768485006164    3.5828623218376907    0.0000000000000000
     0.0000000000000000    0.0000000000000000  -38.6901934435482886
 Pb  Se  S   Zr 
   1   1   2   2
Cartesian
  2.5430547563739139  1.2551444989548739 -22.1419513968065935
  0.4747779070744853  2.4494319395674369 -23.6901934435482957
  1.3441490906258322  1.3615875088465927 -18.3278617161116202
  1.3444302874021661  3.7497127457832260 -15.0000000000000000
  1.3442183182733549  1.3615061405121995 -15.7040531133699020
  1.3443610489151259  3.7497941170388494 -17.6237705964091518
