S  Cd Mg I 
 1.0000000000000000
     4.2614327901121971   -0.0000000000000000    0.0000000000000000
    -2.1307163938235583    3.6919748168543438    0.0000000000000000
     0.0000000000000000    0.0000000000000000   40.5160449186496834
 S   Cd  Mg  I  
   2   2   1   2
Cartesian
  1.2408301073346291  0.8048639665736156 15.0000000000000000
  1.2411457036962079  3.2649625247087357 18.2374084038473541
  1.2404624826883688  0.8049335781524890 17.8133498455626693
  1.2415135521508009  3.2648929353915719 15.4239508926595690
  0.8249344432649134  0.1891949828456929 23.8417272619818199
  2.9556508387318576  1.4198532551304750 25.5160449186496834
  0.8249344440866069  2.6505115274152571 22.1674096053139529
