Sn I  Sr Br
 1.0000000000000000
     4.4041895844611272    0.0000000000000000    0.0000000000000000
    -2.2020947922305636    3.8141400632261666    0.0000000000000000
     0.0000000000000000    0.0000000000000000   41.6291006838344870
 Sn  I   Sr  Br 
   1   2   1   2
Cartesian
  0.1969845333691621  1.5365410669197337 17.0138547965808051
  2.3990793255997254  2.8079210879951222 19.0277095931616103
  2.3990793255997254  2.8079210879951222 15.0000000000000018
  0.3522565694016844  1.6565608967292744 24.8262840843451045
  2.5543513616322477  2.9279409178046629 26.6291006838344799
  2.5543513616322477  2.9279409178046629 23.0234674848557255
