Pd S  Si Se
 1.0000000000000000
     3.5308168423045920   -0.0000000000000001    0.0000000000000000
    -1.7652165543813230    3.0583639042406547    0.0000000000000000
    -0.0000000000000012   -0.0000000000000021  -39.2710808868137278
 Pd  S   Si  Se 
   1   2   1   2
Cartesian
  0.5665791863051771 -0.0151426487828888 -23.0260090534092043
  2.3320515630477971  1.0043119859639960 -21.7809372200046738
  0.5667070974858257  2.0237666207108811 -24.2710808868137349
  0.5837398172903754  0.8658957057318999 -16.4396250289556463
  2.3497400131625827  1.8845310640491084 -17.8792530868155630
  0.5839215503775410  2.9040514258727104 -15.0000000000000036
