In S  Ru Br
 1.0000000000000000
     3.8474675485025980    0.0000000000000000    0.0000000000000000
    -1.9237337742512994    3.3320046372394865    0.0000000000000000
     0.0000000000000000    0.0000000000000000  -41.2384618242736209
 In  S   Ru  Br 
   2   2   1   2
Cartesian
  2.1878024030147318  1.4544264234317077 -18.9966802391811598
  2.1878024030147318  1.4544264234317077 -16.1777227309277585
  0.2640686287634331  2.5650946358448699 -20.1744029701158176
  0.2640686287634331  2.5650946358448699 -15.0000000000000000
  0.2104351818270580  0.5970940387947441 -24.9216126703240164
  2.1341689560783563  1.7077622512079065 -23.6047635163744154
  0.2104351818270578  2.8184304636210693 -26.2384618242736209
