Pt S  Ru Cl
 1.0000000000000000
     3.5834006080373833   -0.0000000000000000    0.0000000000000000
    -1.7917003040186921    3.1033159584969776    0.0000000000000000
     0.0000000000000000    0.0000000000000000   38.4382499760717309
 Pt  S   Ru  Cl 
   1   2   1   2
Cartesian
  0.5020002471405922  0.6934004353173597 16.2320273695004715
  2.2937005511592830  1.7278390881496857 17.4640547390009395
  0.5020002471405918  2.7622777409820118 15.0000000000000000
  0.6228391695239652  0.5636140396900700 22.2108738264561332
  2.4145394735426580  1.5980526925223957 23.4382499760717273
  0.6228391695239663  2.6324913453547216 20.9834976873590975
