Hf Br F  Pt
 1.0000000000000000
     3.4461054794504715    0.0000585085648160    0.0000000000000000
    -1.7230020084344975    2.9845699294217072    0.0000000000000000
    -0.0000000000000013   -0.0000000000000000   41.0372978021121355
 Hf  Br  F   Pt 
   1   2   2   2
Cartesian
 -0.5095585999627115  1.5116234602849858 16.8486980501143790
  1.2135110501927704  2.5065191091354322 18.6973960898101055
  1.2135110501927704  2.5065191091354322 15.0000000000000000
 -0.5403848491940197  1.7607638982464557 22.2439921458835386
  2.9054905651816614  1.7614796363243681 26.0372978021121355
  1.1824958122142279  0.7663040893894728 24.8984087684591273
  1.1826323740989961  2.7558623768794153 23.3829175153356132
