Zr Te Pt Se
 1.0000000000000000
     3.7484710569743886   -0.0000000000000000    0.0000000000000000
    -1.8742355284871943    3.2462711606905259    0.0000000000000000
    -0.0000000000000000    0.0000000000000000  -42.4311305456538932
 Zr  Te  Pt  Se 
   2   2   1   2
Cartesian
  2.1870414481973990  1.3841818871669385 -19.4970846171610788
  2.1870414481973990  1.3841818871669385 -16.8181936022182512
  0.3128059197102047  2.4662722740637801 -21.3152780539109017
  0.3128059197102048  2.4662722740637801 -15.0000000000000053
  0.1995867591305916  0.5617929749237250 -26.1213218177565167
  2.0738222876177863  1.6438833618205670 -24.8115130959487722
  0.1995867591305915  2.7259737487174092 -27.4311305456539039
