Pb S  In Se
 1.0000000000000000
     4.0116790676143346   -0.0000000000000000    0.0000000000000000
    -2.0058395338071673    3.4742159843842844    0.0000000000000000
    -0.0000000000000000    0.0000000000000000   39.9549859968462542
 Pb  S   In  Se 
   1   1   2   2
Cartesian
  2.1745787584419647  1.4811580102536208 16.4391638847389423
  0.1687392246347973  2.6392300050483817 15.0000000000000000
  2.0494013338799304  1.4988564477259789 20.8642100597176103
  2.0494013338799304  1.4988564477259789 23.6784557731038774
  0.0435618000727636  2.6569284425207407 19.5876798135774806
  0.0435618000727636  2.6569284425207407 24.9549859968462471
