S  Zr Te Zn
 1.0000000000000000
     4.2623360198389815    0.0000000000000000    0.0000000000000000
    -2.1311680074847765    3.6923185406649903    0.0000000000000000
    -0.0000000000000000    0.0000000000000000   40.3828272605358052
 S   Zr  Te  Zn 
   2   2   2   2
Cartesian
  1.3175016283140053  0.9425519657345494 15.0000000000000000
  1.3177913763855447  3.4036342786179525 18.3278617161116202
  1.3175729610022611  0.9424681116026525 17.6238086027417182
  1.3177200325281686  3.4037181357603230 15.7040911197024684
  1.3230752984251013  0.9072483615293456 21.6230798943884430
  1.3231808081666805  3.3685191840267161 25.3828272605357981
  1.3229431279454871  0.9073335337564481 24.4340383893947113
  1.3233127513880065  3.3684336532885677 22.5722201013933734
