Hg I  Sr Cl
 1.0000000000000000
     4.4249432816510499   -0.0000000000000000    0.0000000000000000
    -2.2124716408255249    3.8321132922150891    0.0000000000000000
     0.0000000000000000    0.0000000000000000   39.3513004109440772
 Hg  I   Sr  Cl 
   1   2   1   2
Cartesian
  0.4361169557530606  0.4803542213016603 16.7432505159098142
  2.6485885965785863  1.7577253187066901 18.4865010318196283
  0.4361169557530607  3.0350964161117200 15.0000000000000000
  0.6599225112322676  0.8176724219066225 22.9549835868738263
  2.8723941520577929  2.0950435193116528 24.3513004109440772
  0.6599225112322680  3.3724146167166831 21.5586667628035791
