Ge Se Hf Se
 1.0000000000000000
     3.7194079239320672    0.0000000000000000    0.0000000000000000
    -1.8597039619660336    3.2211017491623091    0.0000000000000000
    -0.0000000000000000    0.0000000000000000   38.1953818327358618
 Ge  Se  Hf  Se 
   1   1   1   2
Cartesian
  2.1505674582096130  1.5553222461442213 16.4473597337136113
  0.2908634962435797  2.6290228291983246 15.0000000000000000
  0.7024730636958990  0.3907180638876493 21.6194928119563556
  2.5621770256619323  1.4644186469417522 23.1953818327358583
  0.7024730636958989  2.5381192299958548 20.0436037911791800
