Pb Se Ge Cl
 1.0000000000000000
     4.1551110959970678   -0.0000000000000002    0.0000000000000000
    -2.0775555479985339    3.5984317646811323    0.0000000000000000
     0.0000000000000010    0.0000000000000016   40.3847468077023350
 Pb  Se  Ge  Cl 
   1   1   2   2
Cartesian
  2.4008829738442454  1.4912468456045405 16.5482420467417022
  0.3233274258457122  2.6907241004982514 15.0000000000000000
  1.4607514100306545  0.6022334759988283 22.5228951814604414
  1.4607514136598911  3.0011879857862511 23.1947331833739163
  1.4607514100306545  0.6022334759988278 20.3328815499049362
  1.4607514136598911  3.0011879857862511 25.3847468077023350
