Ca Cl Br Cu
 1.0000000000000000
     3.9492563455479939    0.0000000000000000    0.0000000000000000
    -1.9746281716450893    3.4209703036039345    0.0000000000000000
     0.0000000000000000    0.0000000000000000  -40.4757706700592976
 Ca  Cl  Br  Cu 
   1   2   2   2
Cartesian
 -0.3035397062848713  1.5577801952027892 -23.8596903567665315
  1.6710884668654287  2.6981036297374335 -22.2436100434737654
  1.6710884668654287  2.6981036297374335 -25.4757706700592976
  1.4524099329369582  0.9914988261151410 -18.6331282326220560
  1.4533276667069046  3.2711968408799188 -15.0000000000000000
  1.4520627643748925  0.9917263901733250 -16.1473379424853007
  1.4536727306024835  3.2709701028673299 -17.4854497275087510
