Pb S  Zr Se
 1.0000000000000000
     3.8719756013367164   -0.0000000000000000    0.0000000000000000
    -1.9359878006683582    3.3532292335911240    0.0000000000000000
    -0.0000000000000000    0.0000000000000000   38.1797821014692715
 Pb  S   Zr  Se 
   1   1   1   2
Cartesian
  2.3563038838143702  1.4700574134675124 16.4391638847389459
  0.4203160831460120  2.5878004913312203 15.0000000000000000
  0.8471936801247770  0.1890342194466410 21.5991767963372396
  2.7831814807931350  1.3067772973103491 23.1797821014692715
  0.8471936801247770  2.4245203751740569 20.0185714912050905
