Ti Se Pb O 
 1.0000000000000000
     3.4487499291604697    0.0000000000000000    0.0000000000000000
    -1.7243749645802349    2.9867050499527492    0.0000000000000000
     0.0000000000000000    0.0000000000000000   39.2595071013571442
 Ti  Se  Pb  O  
   1   2   1   2
Cartesian
 -0.4834559402064045  1.2375510568832819 16.6199398271809464
  1.2409190243738304  2.2331194068675320 18.2398796543619532
  1.2409190243738304  2.2331194068675320 15.0000000000000000
  0.5891420252627708  0.8308633659825896 23.2008879452124717
  2.3135169898430052  1.8264317159668393 24.2595071013571513
  0.5891420252627708  2.8220000659510887 22.1422687890677921
