Ti Te Zr Te
 1.0000000000000000
     3.7427308783498772   -0.0000000000000000    0.0000000000000000
    -1.8713654391749386    3.2413000201794389    0.0000000000000000
     0.0000000000000000    0.0000000000000000   43.5776638439835722
 Ti  Te  Zr  Te 
   1   2   2   2
Cartesian
 -0.1151056356978485  1.1350346620234637 16.7885301883608946
  1.7562598034770900  2.2154680020832767 18.5770603767261022
  1.7562598034770900  2.2154680020832767 15.0000000000000000
  2.1211432410178976  1.5216542628767464 24.0805792268225005
  2.1211432410178976  1.5216542628767464 26.7594702417653281
  0.2497778018429591  2.6020876029365594 22.2623857900726776
  0.2497778018429592  2.6020876029365594 28.5776638439835722
