Ti I  Ru Br
 1.0000000000000000
     3.7746621148787431    0.0000000000000000    0.0000000000000000
    -1.8873310574393720    3.2689532821876863    0.0000000000000000
     0.0000000000000000    0.0000000000000000   40.1324864798446086
 Ti  I   Ru  Br 
   1   2   1   2
Cartesian
 -0.6782110055008239  1.4254781442543882 16.8143657812576208
  1.2091200519385470  2.5151292383169506 18.6287315661405408
  1.2091200519385470  2.5151292383169506 15.0000000000000000
  0.4635541432004455  1.0224749208795556 23.8156373258950040
  2.3508852006398162  2.1121260149421177 25.1324864798446086
  0.4635541432004452  3.2017771090046798 22.4987881719453995
