F  Pt Ge S 
 1.0000000000000000
     3.4177899607332747    0.0000585085648160    0.0000000000000000
    -1.7088442490758990    2.9600479708912810    0.0000000000000000
    -0.0000000000000013   -0.0000000000000000   40.0085916481079238
 F   Pt  Ge  S  
   2   2   1   2
Cartesian
 -0.6300921689855991  1.6600680464693904 15.0000000000000000
  2.7874696171339566  1.6607783846092667 18.7933056562285969
  1.0786320080803948  0.6737791235503967 17.6544166225755887
  1.0787677257514843  2.6469908724353233 16.1389253694520782
  0.7668303820305553  0.1515689416938869 23.6115825222714264
  2.4757422728274383  1.1382906043675245 25.0085916481079238
  0.7668642028910475  2.1249537584763458 22.2145733964347443
