Cl Cd Si F 
 1.0000000000000000
     3.9381862060942883    0.0012519794577290    0.0000000000000000
    -1.9679999209417889    3.4175601988212883    0.0000000000000000
    -0.0000000000000046   -0.0000000000000022  -41.9025424038922836
 Cl  Cd  Si  F  
   2   2   2   2
Cartesian
  1.4736762481392864 -0.0492932916257800 -20.5111542448488748
  1.4860638900150358  4.4849685391035532 -15.0000000000000018
  1.4863611269673564  2.2066872813294220 -16.4191145843245287
  1.4734370145467148  2.2289862628847681 -19.0922030609392905
  1.1665030287030442  1.0926107316138540 -25.2601133684527319
  1.1672318148144387  3.3714015239799995 -24.5562863080324050
  1.1665030287030440  1.0926107316138536 -26.9025424038922836
  1.1672318148144389  3.3714015239799995 -22.9138572725918372
