Sn Te In Se
 1.0000000000000000
     4.1235106122001017   -0.0000000000000000    0.0000000000000000
    -2.0617553061000509    3.5710649429400103    0.0000000000000000
    -0.0000000000000000    0.0000000000000000   40.4797171620333316
 Sn  Te  In  Se 
   1   1   2   2
Cartesian
  2.0276606320904604  1.6864745785055786 16.6861605505646367
 -0.0340946740095906  2.8768295594855817 14.9999999999999982
  2.2029772090372224  1.3328858706498377 21.3889412249046984
  2.2029772090372224  1.3328858706498377 24.2031869382909619
  0.1412219029371721  2.5232408516298417 20.1124109787645722
  0.1412219029371721  2.5232408516298417 25.4797171620333387
