Zr Cl F  Pd
 1.0000000000000000
     3.3522704714229627   -0.0000000000000000    0.0000000000000000
    -1.6761352347705669    2.9048523722903572    0.0000000000000000
    -0.0000000000000012    0.0000000000000000   40.7087064108099526
 Zr  Cl  F   Pd 
   1   2   2   2
Cartesian
 -0.3625930888733837  1.3893832930386365 16.7078992199188079
  1.3135421471517357  2.3576674171354224 18.4157984398376016
  1.3135421471517357  2.3576674171354224 15.0000000000000000
 -0.6336530159730378  1.6039801909326090 21.8268526331017156
  2.7169175566165991  1.6080165453219892 25.7087064108099526
  1.0415090029717429  0.6384561753554848 24.5760983627908658
  1.0416726847429576  2.5738186701404571 22.9594100993641241
