Cl Ag Hg I 
 1.0000000000000000
     4.3936966897799206    0.0000000000000000    0.0000000000000000
    -2.1968483436332047    3.8131236005780007    0.0000000000000000
    -0.0000000000000000    0.0000000000000000   40.6765770157845381
 Cl  Ag  Hg  I  
   2   2   1   2
Cartesian
  1.3195153533655923  0.7622172773836935 15.0000000000000000
  1.3150104901519915  3.2990608246169524 18.2868565417185991
  1.3149511449065308  0.7643769314385569 17.9775021923323415
  1.3196104634736823  3.2968824383679545 15.3080484603362663
  0.7916132513636586  0.0578251255404743 23.9333264998747275
  2.9884615966725381  1.3288663257331412 25.6765770157845381
  0.7916132522014958  2.5999075259258086 22.1900759839649098
