Sr Br I  Cd
 1.0000000000000000
     4.3948657041456549    0.0008383076656587    0.0000000000000000
    -2.1967008723558790    3.8133204183649179    0.0000000000000000
     0.0000000000000032    0.0000000000000000   41.7979158188439186
 Sr  Br  I   Cd 
   1   2   2   2
Cartesian
 -0.5330915596010797  1.6288872666105108 16.8028165994893754
  1.6645852857107308  2.9005529445092559 18.6056331989787509
  1.6645852857107304  2.9005529445092559 15.0000000000000000
  1.1734133930271269 -0.4047362629192006 20.8877081639562121
  1.1850314361575043  4.6481140695195009 26.7979158188439115
  1.1902492395342537  2.1083165438695262 25.1863502202209482
  1.1712929315929559  2.1328600864549396 22.4993259271551480
