W  O  Ge O 
 1.0000000000000000
     2.8689470963164916    0.0000000000000000    0.0000000000000000
    -1.4344735481582458    2.4845810675236821    0.0000000000000000
     0.0000000000000000    0.0000000000000000  -38.0909409429900663
 W   O   Ge  O  
   1   2   1   2
Cartesian
 -0.7768852466286738  1.2852686998807608 -16.2371370639881860
  0.6575883015295720  2.1134623890553215 -15.0000000000000018
  0.6575883015295720  2.1134623890553215 -17.4742741279763720
  0.8072756065335341  0.9547032113761826 -22.1115001590417393
  2.2417491546917798  1.7828969005507433 -21.1320593750934123
  0.8072756065335341  2.6110905897253041 -23.0909409429900663
