Hf Se Hf Se
 1.0000000000000000
     3.7247138533876747   -0.0000000000000000    0.0000000000000000
    -1.8623569266938373    3.2256968188615529    0.0000000000000000
     0.0000000000000000    0.0000000000000000   40.3915067116089403
 Hf  Se  Hf  Se 
   1   2   1   2
Cartesian
 -0.4583470084223075  1.3778721781447896 16.6825459715619715
  1.4040099182715291  2.4531044510986404 18.3650919482088710
  1.4040099182715291  2.4531044510986404 15.0000000000000000
  0.5703393180715850  0.8462133531610347 23.8156176908294448
  2.4326962447654217  1.9214456261148856 25.3915067116089475
  0.5703393180715848  2.9966778990687364 22.2397286700522727
