Ti Te Pb O 
 1.0000000000000000
     3.6648468636968072   -0.0000000000000000    0.0000000000000000
    -1.8324234318484036    3.1738504849411608    0.0000000000000000
    -0.0000000000000000    0.0000000000000000   38.4768120181595989
 Ti  Te  Pb  O  
   1   2   1   1
Cartesian
 -0.1143878956223566  1.2762358725312684 21.6882818297943842
  1.7180355362260471  2.3341860341783218 23.4768120181595918
  1.7180355362260471  2.3341860341783218 19.8997516414334932
  2.0286063796820457  1.8431549615261664 15.9428404019710115
  0.1961829478336426  2.9011051231732203 14.9999999999999982
