Br Hg Ge F 
 1.0000000000000000
     4.2148042412056927    0.0010674728082233    0.0000000000000000
    -2.1064700426380165    3.6566252952597056    0.0000000000000000
     0.0000000000000047    0.0000000000000022   42.2210127536820110
 Br  Hg  Ge  F  
   2   2   2   2
Cartesian
  1.2343820001794124 -0.3104146435783116 15.0000000000000000
  1.2450749455528900  4.5432277641689298 20.7696522731609790
  1.2496203775221559  2.1025531118395357 19.2178916173209373
  1.2303969758316768  2.1299385311895604 16.5512692941072075
  1.3139673857815803  1.0135417061502721 24.8470261316167331
  1.3145887747728424  3.4516477272604149 25.4401060168942550
  1.3139673857815803  1.0135417061502716 23.0661194260380213
  1.3145887747728424  3.4516477272604158 27.2210127536820110
