Pd Se I  Pt
 1.0000000000000000
     3.9818991956238117    0.0000237985287992    0.0000000000000000
    -1.9909289791079590    3.4484586620577997    0.0000000000000000
    -0.0000000000000002   -0.0000000000000000   39.7335438953407021
 Pd  Se  I   Pt 
   1   2   2   2
Cartesian
 -0.2561211273189454  1.5932525635559864 16.1981932105471387
  1.7348353433942760  2.7427546499277859 17.3963864211044736
  1.7348353433942760  2.7427546499277859 14.9999999999999982
 -0.8474908597752127  1.9137764189127102 20.3370569179068141
  3.1342536430999086  1.9139720680216661 24.7335438953407021
  1.1432235422701449  0.7643160442665670 23.2446522013809336
  1.1432708339351620  3.0632610568365806 21.8251410369008170
