Mo Se F  Pt
 1.0000000000000000
     3.3558850877029407    0.0000585085648160    0.0000000000000000
    -1.6778918125607323    2.9064367782289615    0.0000000000000000
    -0.0000000000000013   -0.0000000000000000   40.5508765881402056
 Mo  Se  F   Pt 
   1   2   2   2
Cartesian
 -0.4784629573862965  1.4450548924763804 16.6690294767632068
  1.1994964968954194  2.4139061575959113 18.3380589535264136
  1.1994964968954196  2.4139061575959113 15.0000000000000036
 -0.6896535958438396  1.5521281475235733 21.7575709319116193
  2.6660074502705888  1.5528266800355237 25.5508765881402127
  0.9881209322146335  0.5837028442538764 24.4119875544872045
  0.9882548042214736  2.5211769325670268 22.8964963013636975
