Sn I  Ge Br Ge Br
 1.0000000000000000
     4.3333821451324166   -0.0506467540195987    0.0000000000000001
    -2.1229137550317549    3.7784353948997631    0.0000000000000001
     0.0000000000000020   -0.0000000000000000   35.8313452243874906
 Sn  I   Ge  Br  Ge  Br 
   1   2   1   1   1   1
Cartesian
  2.1102298392024372  3.8963053672924963 17.0138547965808051
  4.2915133509467962  5.1220193295793512 19.0277095931616067
  4.2915133509467962  5.1220193295793512 15.0000000000000000
 -0.2207790599182361  0.7427682343215654 17.8019965342216260
 -2.4072929210001339 -0.4854632054799899 20.8313452243874906
 -2.4026586743139005 -0.4831089378565148 18.4812205353164245
 -4.5542026035672958  0.7906687812795858 15.4518543148447627
