Si F  In Se In
 1.0000000000000000
     4.0145053929368846    0.0000000000000000    0.0000000000000000
    -2.0072526964660655    3.4766636539118458    0.0000000000000000
     0.0000000000000013    0.0000000000000023   43.1579088859955959
 Si  F   In  Se  In 
   2   2   1   2   1
Cartesian
  1.6592546048866399  0.4958386521930398 16.6424290354395445
  1.6592546028914208  2.8136144214676033 17.3462560958598715
  1.6592546048866399  0.4958386521930392 14.9999999999999947
  1.6592546028914212  2.8136144214676038 18.9886851313004428
  0.6116335170603669  3.2413479809118959 26.8874931368766639
  2.6188943882942834  2.0821066256428811 22.8021809040175576
  0.6114830988861357  0.9233577823437500 28.1579088859955995
  0.6114912708029610  3.2415574820784152 24.0725888687056724
