Ge Se Ga S 
 1.0000000000000000
     3.6557717321820835    0.0000000000000000    0.0000000000000000
    -1.8278858660910418    3.1659911905067251    0.0000000000000000
    -0.0000000000000000    0.0000000000000000   39.7864810035418799
 Ge  Se  Ga  S  
   1   1   2   2
Cartesian
  1.7281207551604552  1.7836749160846059 16.4473597337136113
 -0.0997651109305862  2.8390053129201807 15.0000000000000018
  2.0781366932146392  1.3014810507821237 21.2137348569345292
  2.0781366932146392  1.3014810507821237 23.6924534181778839
  0.2502508271235979  2.3568114476176985 20.1197072715703769
  0.2502508271235979  2.3568114476176985 24.7864810035418799
