I  Cu I  Zn
 1.0000000000000000
     4.1843036341560751    0.0000000000000035    0.0000000000000000
    -2.0907658474224355    3.6245127276611382    0.0000000000000000
     0.0000000000000013    0.0000000000000022   42.4149313720099883
 I   Cu  I   Zn 
   2   2   2   2
Cartesian
  0.6342400179951987  0.8673405863538434 14.9999999999999964
  0.6351639768487022  3.2836824168763128 18.8558029306399959
  0.6342400179951989  0.8673405863538438 17.6212990317599960
  0.6351639768487020  3.2836824168763123 16.2370991544799921
  0.5721036295404489  0.9614518830249841 22.1115813385734903
  0.5618235387684165  3.3671440130228376 27.4149313720099883
  2.6529492754423623  2.1564116864743141 25.9489750774689796
  2.6656318514969013  2.1727011335454889 23.5774305746883215
