F  Pt S  Ir
 1.0000000000000000
     3.3356643039618019    0.0000585085648160    0.0000000000000000
    -1.6677814197535665    2.8892434274998022    0.0000000000000000
    -0.0000000000000013   -0.0000000000000000   41.8479104984289663
 F   Pt  S   Ir 
   2   2   2   2
Cartesian
 -0.4919647258870805  1.8227982910295339 15.0000000000000000
  2.8434768865095199  1.8234930374234852 18.7933056562285934
  1.1757003205081658  0.8601019309649850 17.6544166225755852
  1.1758335902663306  2.7861147907186359 16.1389253694520747
  1.1108461694154435  0.6351047915620762 22.1976167204088135
  1.1107293444036823  2.5614321744112685 26.8479104984289663
  1.1106524624479721  0.6354592730507855 25.5952421879544190
  1.1109233009301143  2.5610774228407442 23.4503011794231391
