Pb Cl Se Hf
 1.0000000000000000
     4.2228592836877574   -0.0000000000000000    0.0000000000000000
    -2.1114296406255852    3.6578072903943175    0.0000000000000000
     0.0000000000000000    0.0000000000000000   40.4857389421572904
 Pb  Cl  Se  Hf 
   1   2   2   2
Cartesian
 -0.4140507089586792  1.6385071902727373 16.7004028302812522
  1.6973789332912972  2.8577762870708430 18.4008056605625043
  1.6973789332912972  2.8577762870708430 15.0000000000000000
  1.3122097273114655  0.7757333549218504 21.7944624126214315
  1.3124711960788216  3.2137052111799074 25.4857389421572975
  1.3122704009108535  0.7756667002204567 24.5631107638090427
  1.3124105968728721  3.2137719177972763 22.7175295180001662
