Zr Cl Cd F 
 1.0000000000000000
     3.4611116626880860   -0.0000000000000000    0.0000000000000000
    -1.7305558313440408    2.9974106252224848    0.0000000000000000
     0.0000000000000002   -0.0000000000000000   39.3615043887671732
 Zr  Cl  Cd  F  
   1   2   1   2
Cartesian
 -0.5404001773784124  1.2924728060423922 16.7078992199188079
  1.1901556539656311  2.2916096811165536 18.4157984398376016
  1.1901556539656311  2.2916096811165536 15.0000000000000000
  0.5769684574691409  0.8690535958721515 23.3443427067379972
  2.3075242888131835  1.8681904709463133 24.3615043887671732
  0.5769684574691396  2.8673273460204749 22.3271810247088496
