Sr Cl Se Zn
 1.0000000000000000
     4.1498378129798326    0.0000000000000000    0.0000000000000000
    -2.0749189053259744    3.5940282428237342    0.0000000000000000
     0.0000000000000000    0.0000000000000000   40.1626267037284777
 Sr  Cl  Se  Zn 
   1   2   2   2
Cartesian
 -0.4284178847776482  1.7358848502163944 16.6559757380194782
  1.6465010221002487  2.9338942644909727 18.3119514760389634
  1.6465010221002487  2.9338942644909727 14.9999999999999964
  1.2578928370361457  0.8123026288022628 21.7493231130374980
  1.2580000542073502  3.2081856395634736 25.1626267037284777
  1.2577904390657741  0.8123585186137078 24.4050202946474144
  1.2581024222394950  3.2081297477323640 22.5073047151257342
