Hf Br Pb O 
 1.0000000000000000
     3.4512017690626573    0.0000000000000000    0.0000000000000000
    -1.7256008845313286    2.9888284055940568    0.0000000000000000
     0.0000000000000000    0.0000000000000000   39.6835220893981671
 Hf  Br  Pb  O  
   1   2   1   2
Cartesian
 -0.5211399086635942  1.4114295320863743 16.8486980501143790
  1.2044609758677345  2.4077056672843931 18.6973960898101055
  1.2044609758677345  2.4077056672843931 14.9999999999999982
  0.3000782408471456  0.8799120706593038 23.6249029332534874
  2.0256791253784741  1.8761882058573227 24.6835220893981671
  0.3000782408471456  2.8724643410553417 22.5662837771088078
