Si F  Ga Se Ga
 1.0000000000000000
     3.8897651031976341    0.0000000000000000    0.0000000000000000
    -1.9448825542295600    3.3686488348988712    0.0000000000000000
     0.0000000000000013    0.0000000000000023   42.6397754580257384
 Si  F   Ga  Se  Ga 
   2   2   1   2   1
Cartesian
  1.6660655636581689  0.4587170818337322 16.6424290354395481
  1.6660655599695824  2.7044829717663119 17.3462560958598750
  1.6660655636581689  0.4587170818337317 14.9999999999999964
  1.6660655599695826  2.7044829717663128 18.9886851313004428
  0.5909532030328306  3.1101109152769317 26.4683165011982062
  2.5358950691392526  1.9871937624207234 22.8270923177863274
  0.5907713947006297  0.8644592623787795 27.6397754580257420
  0.5908307070311081  3.1101909439467375 23.9985509124412459
