Sn Te Mg I 
 1.0000000000000000
     4.1900724414378416   -0.0000000000000000    0.0000000000000000
    -2.0950362207189208    3.6287091779822584    0.0000000000000000
    -0.0000000000000000    0.0000000000000000   38.5512563140245774
 Sn  Te  Mg  I  
   1   1   1   2
Cartesian
  2.2695325853131676  1.2228188032681087 16.6861605505646402
  0.1744963645942465  2.4323885292621945 15.0000000000000000
  0.8833199950446936  0.1125492784792935 21.8769386573567139
  2.9783562157636130  1.3221190044733806 23.5512563140245774
  0.8833199950446935  2.5316887304674673 20.2026210006888469
