Mo Te Pd S 
 1.0000000000000000
     3.5503935042183739    0.0000000000000000    0.0000000000000000
    -1.7751967521091869    3.0747309680843653    0.0000000000000000
     0.0000000000000000    0.0000000000000000   34.9099039819792551
 Mo  Te  Pd  S  
   1   2   1   2
Cartesian
 -0.6523007329454698  1.4517917996718657 18.1048039819792521
  1.1228960191637170  2.4767021223666541 19.9099039819792480
  1.1228960191637170  2.4767021223666541 16.2997039819792491
  0.3938152801301590  1.0404636168839971 16.2450718334045305
  2.1690120322393458  2.0653739395787856 17.4901436668090611
  0.3938152801301590  3.0902842622735740 15.0000000000000000
