Sn Se Si F 
 1.0000000000000000
     3.9255565944839548    0.0000000000000000    0.0000000000000000
    -1.9627782972396006    3.3996317348155065    0.0000000000000000
     0.0000000000000012    0.0000000000000021   39.3949917969544146
 Sn  Se  Si  F  
   1   1   2   2
Cartesian
  2.2290675385388306  1.3460964550909402 16.5586206887278209
  0.2662892412976456  2.4793070333627756 15.0000000000000000
  1.3665763972792724  0.6727000478475645 22.0487357010935199
  1.3665763953282963  2.9391212043912351 22.7525627615138504
  1.3665763972792724  0.6727000478475641 20.4063066656539718
  1.3665763953282963  2.9391212043912356 24.3949917969544146
