Ge Br Ge Br I  Cd
 1.0000000000000000
     4.3240582648169443   -0.0498084463539401    0.0000000000000001
    -2.1175198351570703    3.7776157500385144    0.0000000000000001
    -0.0000000000000057    0.0000000000000000  -42.6039437244934618
 Ge  Br  Ge  Br  I   Cd 
   1   1   1   1   2   2
Cartesian
  2.2271711308390048  3.3167256500003779 -18.0293486901658611
  0.0450859029553936  2.0882078224875058 -14.9999999999999964
  0.0497107085047288  2.0905627242217251 -17.3501246890710625
 -2.0969290479666718  3.3637881805379335 -20.3794909095427244
  3.1008152915101541 -2.9523751425040019 -27.6039437244934618
  3.1702626286236746  2.0194960256624075 -21.6937360696057588
  3.1462345627005988 -0.4797250011597618 -23.3053016682287222
  3.1278655163128350 -0.4553557578071168 -25.9923259612945188
