Pt O  Sn O 
 1.0000000000000000
     3.1836766184762637    0.0000000000000000    0.0000000000000000
    -1.5918383092381319    2.7571448290349823    0.0000000000000000
     0.0000000000000000    0.0000000000000000   37.5101664560176857
 Pt  O   Sn  O  
   1   2   1   2
Cartesian
  0.4638084581710940  0.6753122047752078 15.9429177774534701
  2.0556467674092258  1.5943604811202019 16.8858355549069401
  0.4638084581710940  2.5134087574651960 15.0000000000000000
  0.5673068084083830  0.6376197571559103 21.5012041313452720
  2.1591451176465148  1.5566680335009044 22.5101664560176857
  0.5673068084083830  2.4757163098458985 20.4922418066728582
