W  Se Sn O 
 1.0000000000000000
     3.3308125654386824   -0.0000000000000000    0.0000000000000000
    -1.6654062827193412    2.8845682969143165    0.0000000000000000
     0.0000000000000000    0.0000000000000000  -38.3232286163913258
 W   Se  Sn  O  
   1   2   1   1
Cartesian
 -0.1121607400760988  1.2022723318761857 -16.6792764021964146
  1.5532455426432425  2.1637950975142912 -15.0000000000000036
  1.5532455426432425  2.1637950975142912 -18.3585528043928221
  1.9409870222705536  1.6880468700500295 -22.3118349977731896
  0.2755807395512119  2.6495696356881351 -23.3232286163913258
