I  Cu Tl Se Tl
 1.0000000000000000
     4.2030590433721535    0.0000000000000000    0.0000000000000000
    -2.1015295204930950    3.6399559030998998    0.0000000000000000
     0.0000000000000000    0.0000000000000000   42.9254636113946191
 I   Cu  Tl  Se  Tl 
   2   2   1   2   1
Cartesian
  1.2210764472205915  0.2722235621922121 15.0000000000000000
  1.2210764270006178  2.6988608430586649 18.8558029306399959
  1.2210764472205917  0.2722235621922124 17.6212990317599960
  1.2210764270006176  2.6988608430586645 16.2370991544799956
  0.6852705538393126  3.1749852669151295 26.6413510149654016
  2.7866522804248985  1.9611213686564124 22.4625510212371822
  0.6851669584268296  0.7478612613379416 27.9254636113946191
  0.6850191593342527  3.1754006421273466 23.7466602742866186
