Bi O  Hg Cl
 1.0000000000000000
     3.9851594930741934    0.0000000000000000    0.0000000000000000
    -1.9925797465370969    3.4512493591349669    0.0000000000000000
     0.0000000000000000    0.0000000000000000   40.2785752877828429
 Bi  O   Hg  Cl 
   2   2   1   2
Cartesian
  2.2063242903478057  1.2582308911880669 15.1279491455499429
  2.2063242903478057  1.2582308911880669 18.2805653489927238
  0.2137445438107090  2.4086473442330556 15.0000000000000036
  0.2137445438107089  2.4086473442330556 18.4085143927414912
  0.8405915064347484  0.1538275099899534 23.8189709991984984
  2.8331712529718480  1.3042439630349429 25.2785752877828429
  0.8405915064347491  2.4546604160799324 22.3593667106141716
