Pb Se S  Ti
 1.0000000000000000
     3.9978499389289599    0.0000000000000000    0.0000000000000000
    -1.9989249683454917    3.4630853313380614    0.0000000000000000
     0.0000000000000000    0.0000000000000000   38.4812034706373538
 Pb  Se  S   Ti 
   1   1   2   2
Cartesian
  2.2984571396878399  1.9400214986230531 16.5482420467416986
  0.2995321705963564  3.0943832757357397 15.0000000000000000
  1.5003060202122733  0.6688906305752726 20.2564550912961963
  1.5005214637763939  2.9770055347813513 23.4812034706373538
  1.5002360939506494  0.6688985057389334 22.7379018370018038
  1.5005914179815727  2.9769976632307151 20.9997980099774111
