Pd Se Br Cd
 1.0000000000000000
     4.0526604901342731    0.0014024937248978    0.0000000000000000
    -2.0251056395653055    3.5155247577082425    0.0000000000000000
     0.0000000000000031    0.0000000000000000   40.4313908523657730
 Pd  Se  Br  Cd 
   1   2   2   2
Cartesian
 -0.4877594614548976  1.6915618252440527 16.1981932105471387
  1.5389789854461831  2.8643384069633986 17.3963864211044807
  1.5389789854461822  2.8643384069633986 15.0000000000000000
  0.9863203074019026 -0.4759398744897734 19.7085416424579662
  0.9994695871509370  4.1881523920570363 25.4313908523657730
  0.9992786752074591  1.8446353183713804 23.9096008461802612
  0.9861026740689162  1.8679075460878660 21.2300675240900674
