Mg Br Zn Br
 1.0000000000000000
     3.8408202465916235    0.0000000000000000    0.0000000000000000
    -1.9204101232958122    3.3262479049179579    0.0000000000000000
     0.0000000000000000    0.0000000000000000   39.2872526669848199
 Mg  Br  Zn  Br 
   1   2   1   2
Cartesian
  0.5115917376772265  0.6049603280623324 16.5070256484157589
  2.4320018609730365  1.7137096297016527 18.0140512968315214
  0.5115917376772261  2.8224589313409729 15.0000000000000000
  0.6264155417973263  0.8352737087807733 22.8046540616531992
  2.5468256650931367  1.9440230104200924 24.2872526669848199
  0.6264155417973263  3.0527723120594117 21.3220554563215963
