Ge F  Cd I 
 1.0000000000000000
     4.2873526908738651   -0.0000000000000000    0.0000000000000000
    -2.1436763454369325    3.7129563452810412    0.0000000000000000
     0.0000000000000013    0.0000000000000022   41.4935045299723129
 Ge  F   Cd  I  
   2   2   1   2
Cartesian
  1.3062791208788578  0.6400900627657254 16.7809067055787082
  1.3062791246235996  3.1153942929530851 17.3739865908562336
  1.3062791208788578  0.6400900627657249 15.0000000000000000
  1.3062791246235999  3.1153942929530860 19.1548933276439897
  0.6654745767398710  0.0080810808495628 24.7729881081944043
  2.8091509221768036  1.2457331959432434 26.4935045299723129
  0.6654745767398711  2.4833853110369239 23.0524716864164922
