S  Zr Cd Br
 1.0000000000000000
     4.1287004952870854    0.0000000000000000    0.0000000000000000
    -2.0643502464453247    3.5760612475768276    0.0000000000000000
    -0.0000000000000000    0.0000000000000000   40.3969753393364641
 S   Zr  Cd  Br 
   2   2   1   2
Cartesian
  1.1837443457954990  0.8644301008060482 15.0000000000000000
  1.1840250087241984  3.2480221417608948 18.3278617161116202
  1.1838134420150541  0.8643488869269578 17.6238086027417182
  1.1839559016857046  3.2481033585556705 15.7040911197024684
  0.8647931225110335  0.2259440491948808 23.8303674886205137
  2.9291433705539829  1.4179644650538228 25.3969753393364641
  0.8647931233098458  2.6099848809127648 22.2637596379045739
