Ti Br Zr Br
 1.0000000000000000
     3.5171666079561632   -0.0000000000000000    0.0000000000000000
    -1.7585833039780816    3.0459556318323804    0.0000000000000000
     0.0000000000000000    0.0000000000000000   41.0334426942580635
 Ti  Br  Zr  Br 
   1   2   1   2
Cartesian
  0.2090157680955636  1.1631006968433892 16.6938534583278368
  1.9675990720736454  2.1784192407875160 18.3877069173080052
  1.9675990720736454  2.1784192407875160 15.0000000000000000
  0.2981239710613623  1.3880726584745744 24.2072502717716240
  2.0567072750394439  2.4033912024187014 26.0334426942580635
  2.0567072750394439  2.4033912024187014 22.3810578412308132
