Te Cd Sb Se Sb
 1.0000000000000000
     4.7425766211095581   -0.0000000000000000    0.0000000000000000
    -2.3712883092213461    4.1081784054158268    0.0000000000000000
     0.0000000000000000    0.0000000000000000  -41.3449294515774000
 Te  Cd  Sb  Se  Sb 
   2   2   1   2   1
Cartesian
  1.6066282654802766  0.4017681435128257 -18.9868015879661520
  1.6067393516749837  3.1400088606445169 -15.0000000000000000
  1.6062408320868504  0.4020162457302627 -15.9429423785144024
  1.6071283028022549  3.1397603407044321 -18.0443090689685377
  0.8318924241924281  3.7821726347385889 -23.1532648688737162
  3.2074005802619445  2.4175018455090038 -26.3449294515774000
  0.8310896359409827  1.0437003273024650 -22.8579793321348888
  0.8352784353500613  3.7870368319651204 -26.0497366662610332
