Pb Cl I  Cu
 1.0000000000000000
     4.1785466483507259    0.0000000000000000    0.0000000000000000
    -2.0892733229823817    3.6187275463037447    0.0000000000000000
     0.0000000000000000    0.0000000000000000   40.6485775575054902
 Pb  Cl  I   Cu 
   1   2   2   2
Cartesian
 -0.3433747824620013  1.6460168655797929 16.7004028302812557
  1.7458985421110222  2.8522593810143748 18.4008056605625043
  1.7458985421110222  2.8522593810143748 15.0000000000000018
  1.2568202377422324  0.7894298554244421 21.7927746268654872
  1.2568202176448202  3.2019148983560304 25.6485775575054902
  1.2568202377422326  0.7894298554244424 24.4140736586254832
  1.2568202176448202  3.2019148983560304 23.0298737813454863
