Cd Br Mg I 
 1.0000000000000000
     4.1347222822382639    0.0000000000000000    0.0000000000000000
    -2.0673611411191324    3.5807745340119110    0.0000000000000000
     0.0000000000000000    0.0000000000000000   39.8047590677861578
 Cd  Br  Mg  I  
   1   2   1   2
Cartesian
  0.4797370180958383  0.7588862315691498 16.5666078507159398
  2.5470981592149702  1.9524777429064530 18.1332157014318902
  0.4797370180958382  3.1460692542437565 15.0000000000000000
  0.6439587121359681  0.7230389619861423 23.1304414111182979
  2.7113198532550991  1.9166304733234469 24.8047590677861578
  0.6439587121359678  3.1102219846607517 21.4561237544504309
