Ge S  Zr Se
 1.0000000000000000
     3.5420381296995895   -0.0000000000000000    0.0000000000000000
    -1.7710190648497948    3.0674950014929641    0.0000000000000000
    -0.0000000000000000    0.0000000000000000   41.0159252347533396
 Ge  S   Zr  Se 
   1   1   2   2
Cartesian
  1.6600675153551723  1.4444497560183833 16.3610326690029417
 -0.1109515494946220  2.4669480898493710 15.0000000000000000
  2.0781204217230691  1.1983155744509395 21.6570768973207137
  2.0781204217230691  1.1983155744509395 24.4033194060043002
  0.3071013568732742  2.2208139082819276 20.0444708111221210
  0.3071013568732742  2.2208139082819276 26.0159252347533396
