Ru Br Sn S 
 1.0000000000000000
     3.7381782548014213    0.0000000000000000    0.0000000000000000
    -1.8690891274007111    3.2373573325326088    0.0000000000000000
     0.0000000000000000    0.0000000000000000   38.9663979286675257
 Ru  Br  Sn  S  
   1   2   1   2
Cartesian
  0.6162821299035227  0.8172931513313855 16.3168491539496010
  2.4853712573042328  1.8964122621755886 17.6336983078992056
  0.6162821299035225  2.9755313730197921 14.9999999999999982
  0.6190749546817758  0.7900410880533318 22.4888265258831019
  2.4881640820824860  1.8691601988975348 23.9663979286675257
  0.6190749546817755  2.9482793097417375 21.0112551230986782
