Al Se Al S  Ti
 1.0000000000000000
     3.8550698522700064   -0.0000000000000000    0.0000000000000000
    -1.9275349250160150    3.3394306569820653    0.0000000000000000
     0.0000000000000000    0.0000000000000000   42.0562600919392224
 Al  Se  Al  S   Ti 
   1   2   1   2   2
Cartesian
  0.6410831777449975  2.9127273825650017 18.7386451449391878
  2.5686574051563662  1.7996389907076562 15.0000000000000000
  0.6409855595869782  0.6865734228222427 19.8990279270139681
  0.6410248599114641  2.9127642453885003 16.1603825001332311
  1.1680899034964618  0.1795751384884574 23.8315117125980613
  1.1682976526886726  2.4052753258889452 27.0562600919392224
  1.1680224745966319  0.1795827324575459 26.3129584583036689
  1.1683651085340754  2.4052677354038727 24.5748546312792797
