Zr I  Al Se
 1.0000000000000000
     3.8033913199727767   -0.0000000000000000    0.0000000000000000
    -1.9016956599863883    3.2938335036296529    0.0000000000000000
    -0.0000000000000000    0.0000000000000000   42.5433327944903183
 Zr  I   Al  Se 
   1   2   2   2
Cartesian
 -0.1937507997667936  1.1922610593468326 16.9391452359630961
  1.7079448602195950  2.2902055605567169 18.8782904725522265
  1.7079448602195950  2.2902055605567169 15.0000000000000000
  2.1991388746166440  1.2932318459256944 23.7880009787178217
  2.1991388746166440  1.2932318459256944 26.3758534616540175
  0.2974432146302555  2.3911763471355787 22.6205216458815528
  0.2974432146302555  2.3911763471355787 27.5433327944903255
