Mo Se F  Pd
 1.0000000000000000
     3.3070875162207645   -0.0000000000000000    0.0000000000000000
    -1.6535437571694678    2.8657227852671987    0.0000000000000000
    -0.0000000000000012    0.0000000000000000   40.5109680984957379
 Mo  Se  F   Pd 
   1   2   2   2
Cartesian
 -0.1922656690416287  1.3850292837517260 16.6690294767632032
  1.4612780893823913  2.3402702121741252 18.3380589535264100
  1.4612780893823913  2.3402702121741252 15.0000000000000000
 -0.6902988655821978  1.6030347340978728 21.6291143207875010
  2.6151116635760969  1.6070167170906746 25.5109680984957379
  0.9622847930787810  0.6505167343688745 24.3783600504766511
  0.9624462687040793  2.5598090798122004 22.7616717870499095
