Zr Br Cl Pt
 1.0000000000000000
     3.5968185650201692    0.0000000000000002    0.0000000000000000
    -1.7984092814729427    3.1155040003013061    0.0000000000000000
    -0.0000000000000002    0.0000000000000000   41.1900104111109044
 Zr  Br  Cl  Pt 
   1   2   2   2
Cartesian
 -0.2740277949060252  1.3894231719491428 16.8261924305408108
  1.5243814879497730  2.4279245053829115 18.6523848530272502
  1.5243814879497730  2.4279245053829115 15.0000000000000018
 -0.5383083714532503  1.7208995658569048 22.0066803691313879
  3.0574059416274442  1.7220500055498531 26.1900104111109044
  1.2598098729290697  0.6834227158708693 24.8412275468547676
  1.2600247033642953  2.7599973938684226 23.3574644971963963
