W  S  Zn F 
 1.0000000000000000
     3.1653925249140498    0.0000000000000000    0.0000000000000000
    -1.5826962624570251    2.7413103395249343    0.0000000000000000
     0.0000000000000000    0.0000000000000000   39.0907515296084824
 W   S   Zn  F  
   1   2   1   2
Cartesian
 -0.6591401545856881  1.3676683259165685 16.5727974379861891
  0.9235561078713366  2.2814384390915463 18.1455948759723711
  0.9235561078713366  2.2814384390915463 15.0000000000000036
  0.4362375138903192  0.8112210417224117 23.0949846252639972
  2.0189337763473434  1.7249911548973895 24.0907515296084824
  0.4362375138903192  2.6387612680723671 22.0992177209194907
