Cl Pd Ru Br
 1.0000000000000000
     3.7243701415522938   -0.0000057074165551    0.0000000000000000
    -1.8621900142808481    3.2253731093375073    0.0000000000000000
    -0.0000000000000001    0.0000000000000000   39.8619330868106800
 Cl  Pd  Ru  Br 
   2   2   1   2
Cartesian
 -0.6568507853493286  1.6852831976274234 15.0000000000000000
  3.0675721565902632  1.6851876898428060 19.0602727285529099
  1.2051136077158464  0.6099390070263493 17.7820690337428502
  1.2051062058550726  2.7602115131431559 16.2762156910758335
  0.6499701761387615 -0.1222490371597991 23.5450839328610719
  2.5121535990800075  0.9528715276750001 24.8619330868106765
  0.6499668804689609  2.0279977999263550 22.2282347789114709
