Pd Se S  Zn
 1.0000000000000000
     3.9618551129492516    0.0000000000000000    0.0000000000000000
    -1.9809275553542951    3.4313229451498297    0.0000000000000000
    -0.0000000000000000    0.0000000000000000   39.1332231427284327
 Pd  Se  S   Zn 
   1   2   2   2
Cartesian
 -0.9082224933656228  1.3288043618908587 16.1981932105471387
  1.0727050634824464  2.4725786769408016 17.3963864211044772
  1.0727050634824464  2.4725786769408016 15.0000000000000000
  1.3552372590752839  0.7860185481020381 21.0124805008253581
  1.3553087236334582  3.0733676672026191 24.1332231427284327
  1.3551089505477494  0.7860675072702665 23.5939405898347019
  1.3554370473545125  3.0733188385220838 21.5519089053046535
