Ti Cl Sn O 
 1.0000000000000000
     3.3108231493461338   -0.0000000000000000    0.0000000000000000
    -1.6554115746730669    2.8672569547713516    0.0000000000000000
    -0.0000000000000000    0.0000000000000000   38.1358614576664152
 Ti  Cl  Sn  O  
   1   2   1   1
Cartesian
 -0.1174820773962712  1.2037961905485948 21.5500017669132049
  1.5379294972767950  2.1595485088057118 23.1358614576664152
  1.5379294972767950  2.1595485088057118 19.9641423304990440
  1.9239241066396064  1.6893661129491542 16.0113936186181363
  0.2685125319665391  2.6451184312062712 14.9999999999999982
