Zr Se Pd S 
 1.0000000000000000
     3.5745650879983626    0.0000000000000000    0.0000000000000000
    -1.7872825439991813    3.0956641736875392    0.0000000000000000
     0.0000000000000000    0.0000000000000000  -41.9808621275506155
 Zr  Se  Pd  S  
   2   2   1   2
Cartesian
  2.0268733501291130  1.3451060469028824 -19.3588483374326330
  2.0268733501291130  1.3451060469028824 -16.6126058287490466
  0.2395908061299319  2.3769941047987282 -20.9714544236312221
  0.2395908061299319  2.3769941047987282 -15.0000000000000018
  0.1864183396622866  0.5672082842132863 -25.7357902941460779
  1.9737008836614673  1.5990963421091327 -24.4907184607415473
  0.1864183396622866  2.6309844000049787 -26.9808621275506084
