Pd Se Zr Se
 1.0000000000000000
     3.7648477216685912    0.0000000000000000    0.0000000000000000
    -1.8824238608342956    3.2604537683449655    0.0000000000000000
    -0.0000000000000000    0.0000000000000000   39.2044005987845310
 Pd  Se  Zr  Se 
   1   2   1   2
Cartesian
  0.5075372205663601  0.7446640259579783 16.3130582836290756
  2.3899610814006556  1.8314819487396334 17.6261168079604857
  0.5075372205663601  2.9182998715212887 15.0000000000000000
  0.6571390712458208  0.8078664095953867 22.6237952936525062
  2.5395629320801163  1.8946843323770417 24.2044005987845310
  0.6571390712458208  2.9815022551586967 21.0431899885203535
