Cd I  Pb Cl
 1.0000000000000000
     4.3584183870167257    0.0000000000000000    0.0000000000000000
    -2.1792091935083633    3.7745010434776813    0.0000000000000000
     0.0000000000000000    0.0000000000000000   39.4823995255053717
 Cd  I   Pb  Cl 
   1   2   1   2
Cartesian
  0.6888651746316070  0.9140106172020124 16.7205164217779156
  2.8680743681399696  2.1721776316945731 18.4410328435558206
  0.6888651746316068  3.4303446461871334 15.0000000000000000
  0.6847710155616851  1.0125950043725065 22.9936674672855652
  2.8639802090700468  2.2707620188650668 24.4823995255053717
  0.6847710155616847  3.5289290333576266 21.5049354090658049
