Mo Te Zr Br
 1.0000000000000000
     3.5548408372258544   -0.0000000000000000    0.0000000000000000
    -1.7774204186129272    3.0785824714479322    0.0000000000000000
     0.0000000000000000    0.0000000000000000   41.2561155930670154
 Mo  Te  Zr  Br 
   1   2   1   2
Cartesian
  0.2005175257004902  1.2045505681831290 16.8050999999999995
  1.9779379443134171  2.2307447253324399 18.6101999999999990
  1.9779379443134171  2.2307447253324399 15.0000000000000000
  0.2992154564439238  1.3973591676636432 24.4299231705805759
  2.0766358750568510  2.4235533248129539 26.2561155930670154
  2.0766358750568510  2.4235533248129539 22.6037307400397651
