Hf Se Ti Te
 1.0000000000000000
     3.7068038194410402    0.0000000000000000    0.0000000000000000
    -1.8534019097205201    3.2101862744811260    0.0000000000000000
     0.0000000000000000    0.0000000000000000   40.9407718489886676
 Hf  Se  Ti  Te 
   1   2   1   2
Cartesian
  0.2115986046670809  1.4450816285253865 16.6825459715619751
  2.0650005143876005  2.5151437200190951 18.3650919482088710
  2.0650005143876005  2.5151437200190951 15.0000000000000000
  0.3277915162180244  1.4239772298321816 24.1522416606234600
  2.1811934259385444  2.4940393213258902 25.9407718489886676
  2.1811934259385444  2.4940393213258902 22.3637114722625654
