Br Hg Se Ti
 1.0000000000000000
     4.1104885731690501    0.0010674728082233    0.0000000000000000
    -2.0543122074653541    3.5672141948671197    0.0000000000000000
     0.0000000000000035    0.0000000000000000   42.2108097229408230
 Br  Hg  Se  Ti 
   2   2   2   2
Cartesian
  1.4267428863034020 -0.1926867021525219 15.0000000000000018
  1.4372018006553240  4.5422927514538891 20.7696522731609825
  1.4416193378191811  2.1612883298945236 19.2178916173209409
  1.4228718847416013  2.1880041048763030 16.5512692941072110
  1.1578598354303156  0.9735562324899317 23.6514782650735427
  1.1585910686893754  3.3514530106231639 27.2108097229408230
  1.1576620246270379  0.9736253805132423 26.2847964011421951
  1.1587889626666128  3.3513838899169586 24.5775628884883020
