Ge Br Ge Br Tl Se Tl
 1.0000000000000000
     4.2381757413124390   -0.0506467540195987    0.0000000000000001
    -2.0753105531217662    3.6959842305887030    0.0000000000000001
    -0.0000000000000025    0.0000000000000000  -43.1687769253170046
 Ge  Br  Ge  Br  Tl  Se  Tl 
   1   1   1   1   1   2   1
Cartesian
  4.8580148843644881  2.6907501375713658 -18.0293486901658682
  2.7192184776509820  1.4900590602612922 -15.0000000000000036
  2.7237515249237312  1.4923604248935445 -17.3501246890710696
  0.6197979502829575  2.7387110176590554 -20.3794909095427315
  0.3001970072827106  1.0453709143330396 -23.9899769315887887
  2.4045368514043766 -0.2040541630949999 -28.1687769253170082
  0.2709018148467000 -1.4022259158000123 -22.7058643351595677
  0.2999485080364385  1.0457928227519115 -26.8846676722675682
