Pb Br Sr Cl
 1.0000000000000000
     4.2661195172530668    0.0000000000000000    0.0000000000000000
    -2.1330597586265334    3.6945678775217612    0.0000000000000000
     0.0000000000000000    0.0000000000000000   35.3389581984054004
 Pb  Br  Sr  Cl 
   1   2   1   2
Cartesian
  0.3486996325437240  1.4340260711877504 18.4974780568507384
  2.4817593911702573  2.6655486970283371 20.3389581984054004
  2.4817593911702573  2.6655486970283371 16.6559979152969575
  0.3376612311115442  1.7074769697205845 16.6559757380194817
  2.4707209897380773  2.9389995955611714 18.3119514760389634
  2.4707209897380773  2.9389995955611714 15.0000000000000000
