Sn Te Hg Br
 1.0000000000000000
     4.1580059077826634   -0.0000000000000000    0.0000000000000000
    -2.0790029538913322    3.6009387452255628    0.0000000000000000
    -0.0000000000000000    0.0000000000000000   38.2519384789335888
 Sn  Te  Hg  Br 
   1   1   1   2
Cartesian
  2.3346296210749764  1.1694771643506512 16.6861605505646438
  0.2556266671836445  2.3697900794258384 15.0000000000000018
  0.8314515246568304  0.2758092279312886 21.6625309028027857
  2.9104544785481608  1.4761221430064762 23.2519384789335888
  0.8314515246568298  2.6764350580816632 20.0731233266719897
