Al Te In Se
 1.0000000000000000
     4.0947759826572501   -0.0000000000000000    0.0000000000000000
    -2.0473879913286250    3.5461800237875662    0.0000000000000000
     0.0000000000000000    0.0000000000000000   44.5010286095267062
 Al  Te  In  Se 
   2   2   2   2
Cartesian
  2.3733275445607287  1.2850866500773257 16.2795918494368621
  2.3733275445607287  1.2850866500773257 18.8534102305006570
  0.3259395532321032  2.4671466580065142 15.0000000000000036
  0.3259395532321032  2.4671466580065142 20.1330020799375902
  2.3472894658445504  1.5973656217955250 25.4102526723980731
  2.3472894658445504  1.5973656217955250 28.2244983857843437
  0.2999014745159259  2.7794256297247140 24.1337224262579468
  0.2999014745159259  2.7794256297247140 29.5010286095267134
