Mo Te Ru Cl
 1.0000000000000000
     3.5702806918055821   -0.0000000000000000    0.0000000000000000
    -1.7851403459027915    3.0919537777447141    0.0000000000000000
     0.0000000000000000    0.0000000000000000   34.9021412351521931
 Mo  Te  Ru  Cl 
   1   2   1   2
Cartesian
 -0.6507514078120230  1.4500295584779643 18.0970412351521937
  1.1343889380907675  2.4806808177262027 19.9021412351521931
  1.1343889380907675  2.4806808177262027 16.2919412351521942
  0.4091794043963121  1.0461508872111676 16.2273761390970321
  2.1943197502991043  2.0768021464594053 17.4547522887126298
  0.4091794043963133  3.1074534057076439 15.0000000000000000
