Ca Cl Zr I 
 1.0000000000000000
     3.8874632566058991    0.0000000000000000    0.0000000000000000
    -1.9437316283029495    3.3666419364992928    0.0000000000000000
     0.0000000000000000    0.0000000000000000   41.1071915869866586
 Ca  Cl  Zr  I  
   1   2   1   2
Cartesian
  0.1711255227021807  1.3753789136109456 16.6160803132927661
  2.1148571510051304  2.4975928924440431 18.2321606265855323
  2.1148571510051304  2.4975928924440431 15.0000000000000000
  0.2515494578328228  1.4961101538968409 24.1680463503975318
  2.1952810861357723  2.6183241327299385 26.1071915869866586
  2.1952810861357723  2.6183241327299385 22.2289011144344357
