Zr I  Br Pt
 1.0000000000000000
     3.7926116065287951    0.0000194514724014    0.0000000000000000
    -1.8962889506400085    3.2845233841286712    0.0000000000000000
    -0.0000000000000002   -0.0000000000000000   41.0768298603421584
 Zr  I   Br  Pt 
   1   2   2   2
Cartesian
  0.1036271472305750  1.4599408721484182 16.9391452359630961
  1.9999385680364359  2.5547949678395758 18.8782904725522265
  1.9999385680364359  2.5547949678395758 15.0000000000000000
 -0.7078422583949271  1.8710381427502198 21.7419785878859493
  3.0846410636103028  1.8712008369104514 26.0768298603421655
  1.1882549026230702  0.7762160372070255 24.6342809441382862
  1.1882982304037020  2.9658665918453986 23.1835203322807182
