Ca I  Ge F 
 1.0000000000000000
     4.3180048166334668   -0.0000000000000000    0.0000000000000000
    -2.1590024083167334    3.7395018648688514    0.0000000000000000
     0.0000000000000013    0.0000000000000022   41.4933427486142463
 Ca  I   Ge  F  
   1   2   2   2
Cartesian
 -0.2496702440986521  1.5114180579199625 16.9490723290323366
  1.9093321642180816  2.7579186795429127 18.8981446580646484
  1.9093321642180816  2.7579186795429127 15.0000000000000000
  1.2518791831127494  0.8250353217013718 24.1193561265489649
  1.2518791868842640  3.3180365649472718 24.7124360118264903
  1.2518791831127494  0.8250353217013713 22.3384494209702567
  1.2518791868842643  3.3180365649472723 26.4933427486142463
