Zr Te Si F 
 1.0000000000000000
     3.9334129129861459    0.0000000000000000    0.0000000000000000
    -1.9667064564906960    3.4064355062186258    0.0000000000000000
     0.0000000000000013    0.0000000000000022   41.3091397161431502
 Zr  Te  Si  F  
   1   2   2   2
Cartesian
 -0.4814564089866448  1.3977920114801425 16.8615645620742072
  1.4852500475072208  2.5332705135530182 18.7231291241485991
  1.4852500475072208  2.5332705135530178 15.0000000000000000
  1.1803785226075574  0.8123948609099000 23.9628836202822519
  1.1803785206526736  3.0833518650556502 24.6667106807025824
  1.1803785226075574  0.8123948609098995 22.3204545848427038
  1.1803785206526736  3.0833518650556506 26.3091397161431502
