Cl Pd Ga S  Ga
 1.0000000000000000
     3.6621250900561324   -0.0000057074165551    0.0000000000000000
    -1.8310674910427762    3.1714760611095780    0.0000000000000000
    -0.0000000000000001    0.0000000000000000   42.6200613796237491
 Cl  Pd  Ga  S   Ga 
   2   2   1   2   1
Cartesian
 -0.5724542585134575  1.3924033271431726 15.0000000000000000
  3.0897227494843857  1.3923093199522925 19.0602727285529099
  1.2583913253522117  0.3350284607811391 17.7820690337428502
  1.2583839904438086  2.4493691724744187 16.2762156910758300
  0.6622765140118427  2.9231809939794000 26.5314605933431196
  2.4934006337853742  1.8659932947096807 22.9691686934318398
  0.6620870980322126  0.8089837265305669 27.6200613796237491
  0.6621437286714607  2.9232720883285674 24.0577683055286968
