Pb Te Cd I 
 1.0000000000000000
     4.3241360060604936    0.0000000000000000    0.0000000000000000
    -2.1620680030302468    3.7448116306673600    0.0000000000000000
     0.0000000000000000    0.0000000000000000   38.5480438027022387
 Pb  Te  Cd  I  
   1   1   1   2
Cartesian
  2.3785356816942205  1.4101226145919283 16.6845068820464810
  0.2164676786639738  2.6583931581477147 15.0000000000000036
  0.7652265449589719  0.2116037115531098 21.8275273809243302
  2.9272945479892183  1.4598742551088968 23.5480438027022387
  0.7652265449589721  2.7081447986646836 20.1070109591464146
