Hf I  Pt Se
 1.0000000000000000
     3.7607076554556995   -0.0000000000000000    0.0000000000000000
    -1.8803538277278498    3.2568683658312518    0.0000000000000000
     0.0000000000000000    0.0000000000000000   40.2574189175676196
 Hf  I   Pt  Se 
   1   2   1   2
Cartesian
 -0.3546257669092721  1.1622892291814444 16.9476853944779826
  1.5257280608185775  2.2479120177918617 18.8953707810581477
  1.5257280608185775  2.2479120177918617 15.0000000000000018
  0.4041594026977531  0.9338163959973297 23.9476101957598715
  2.2845132304256031  2.0194391846077471 25.2574189175676196
  0.4041594026977530  3.1050619732181648 22.6378014678624844
