Mo Te Zr S 
 1.0000000000000000
     3.6148320576716562    0.0000000000000000    0.0000000000000000
    -1.8074160288358281    3.1305363923580289    0.0000000000000000
    -0.0000000000000000    0.0000000000000000   35.2255953222708840
 Mo  Te  Zr  S  
   1   2   1   2
Cartesian
 -0.2639777438575686  1.2353152407975563 16.8051000000000030
  1.5434382849782593  2.2788273715835663 18.6102000000000025
  1.5434382849782593  2.2788273715835663 15.0000000000000018
  0.4431240514077324  0.8427724241890042 18.7797128795268229
  2.2505400802435602  1.8862845549750136 20.2255953222708840
  0.4431240514077322  2.9297966857610231 17.3338304367826943
