Hf Se Pt Se
 1.0000000000000000
     3.7604300560239543   -0.0000000000000000    0.0000000000000000
    -1.8802150280119772    3.2566279576712840    0.0000000000000000
     0.0000000000000000    0.0000000000000000   39.1168129208703093
 Hf  Se  Pt  Se 
   1   2   1   2
Cartesian
  0.6165650682537986  0.7664645295771519 16.5758890207771792
  2.4967800962657756  1.8520071821342468 18.1517780415566818
  0.6165650682537984  2.9375498346913411 15.0000000000000018
  0.6404012804773286  0.8484643579320654 22.8070041990625647
  2.5206163084893056  1.9340070104891600 24.1168129208703093
  0.6404012804773285  3.0195496630462548 21.4971954711651776
