Tl Se Tl S  Zr
 1.0000000000000000
     4.2122268907571376    0.0000000000000000    0.0000000000000000
    -2.1061134441803504    3.6483972279404386    0.0000000000000000
    -0.0000000000000000    0.0000000000000000   36.2170201549818458
 Tl  Se  Tl  S   Zr 
   1   2   1   2   2
Cartesian
  0.7754039369872121  3.4835044898419678 19.9329075585526247
  2.8813692648889915  2.2668255521294274 15.7541075648244053
  0.7753001156073314  1.0507518055926295 21.2170201549818458
  0.7751519941323836  3.4839208283397829 17.0382168178738453
  1.3982484052241231  0.3820237747999897 15.0000000000000000
  1.3985347461369957  2.8138307245979672 18.3278617161116202
  1.3983188993067996  0.3819409181398738 17.6238086027417182
  1.3984642410165058  2.8139135842327465 15.7040911197024684
