Hf Br Zr Cl
 1.0000000000000000
     3.4551521348073964    0.0000000000000000    0.0000000000000000
    -1.7275760674036982    2.9922495226832404    0.0000000000000000
     0.0000000000000000    0.0000000000000000   41.1098029184712175
 Hf  Br  Zr  Cl 
   1   2   1   2
Cartesian
  0.1791326613264786  1.2550820964753484 16.8486980501143790
  1.9067087287301767  2.2524986040364285 18.6973960898101055
  1.9067087287301767  2.2524986040364285 15.0000000000000018
  0.3069981648607322  1.3823084638789385 24.4019036985524238
  2.0345742322644300  2.3797249714400186 26.1098029184712175
  2.0345742322644300  2.3797249714400186 22.6940044786336159
