Hg Cl Sn Se
 1.0000000000000000
     3.9294180197078692    0.0000000000000000    0.0000000000000000
    -1.9647090098539346    3.4029758271553563    0.0000000000000000
     0.0000000000000000    0.0000000000000000   39.4355672640102881
 Hg  Cl  Sn  Se 
   1   2   1   2
Cartesian
  0.5966398457086690  0.8162232746788065 16.4596042885843268
  2.5613488555626058  1.9505485503972591 17.9192085771686713
  0.5966398457086697  3.0848738261157114 15.0000000000000036
  0.6464851095810960  0.7966442031661720 22.8426362444360826
  2.6111941194350305  1.9309694788846237 24.4355672640102881
  0.6464851095810960  3.0652947546030758 21.2497052248618168
