Ga O  Zn F 
 1.0000000000000000
     3.1388710142844030    0.0000000000000000    0.0000000000000000
    -1.5694355071422015    2.7183420375729206    0.0000000000000000
     0.0000000000000000    0.0000000000000000   39.8794955811485323
 Ga  O   Zn  F  
   2   2   1   2
Cartesian
  1.8100522669941594  1.2165396775307640 15.7491739274520555
  1.8100522669941594  1.2165396775307640 18.2624596435107698
  0.2406167598519581  2.1226536900550705 15.0000000000000000
  0.2406167598519581  2.1226536900550705 19.0116335709628004
 -0.4863700363455227  0.9773415064848732 23.8837286768040542
  1.0830654707966783  1.8834555190091797 24.8794955811485394
 -0.4863700363455225  2.7895695315334863 22.8879617724595512
