Mo Te In O 
 1.0000000000000000
     3.4938365621885654    0.0000000000000000    0.0000000000000000
    -1.7469182810942827    3.0257512195261871    0.0000000000000000
     0.0000000000000000    0.0000000000000000   41.9337085372277869
 Mo  Te  In  O  
   1   2   2   2
Cartesian
 -0.6430436637458636  1.5151909997447368 16.8050999999999995
  1.1038746173484189  2.5237747395867993 18.6101999999999990
  1.1038746173484189  2.5237747395867993 15.0000000000000000
  1.9384095058476998  1.3717058907250541 23.2927737175741711
  1.9384095058476998  1.3717058907250541 26.1430389151954472
  0.1914912247534170  2.3802896305671162 22.5021040925549656
  0.1914912247534170  2.3802896305671162 26.9337085372277869
