Pb I  Cl Ag
 1.0000000000000000
     4.4513654079928697    0.0000000000000000    0.0000000000000000
    -2.2256827027396788    3.8630661755541005    0.0000000000000000
    -0.0000000000000000    0.0000000000000000   40.9632945226076473
 Pb  I   Cl  Ag 
   1   2   2   2
Cartesian
 -0.3131817785918665  1.6864859310809086 17.0310965280492539
  1.9125009258234873  2.9741746562656086 19.0621930560985149
  1.9125009258234873  2.9741746562656086 14.9999999999999964
  1.2615168257057852  0.8475443012591304 22.6764379808890553
  1.2569528346657066  3.4176142823381550 25.9632945226076544
  1.2568927105052903  0.8497322414898054 25.6539401732213932
  1.2616131841544493  3.4154073645675060 22.9844864412253216
