Cr Te Se Ir
 1.0000000000000000
     3.4391450301549531   -0.0000000000000000    0.0000000000000000
    -1.7195725141040898    2.9833009487468596    0.0000000000000000
    -0.0000000000000000    0.0000000000000000   41.8142451565752324
 Cr  Te  Se  Ir 
   1   2   2   2
Cartesian
 -0.4069969393787336  1.3546412399111927 16.7062363127964808
  1.3125755760232050  2.3490748894934792 18.4124726255929616
  1.3125755760232050  2.3490748894934792 14.9999999999999964
  1.1059482478670986  0.6747803629999044 22.0395014199283281
  1.1056913899309944  2.6628215888648197 26.8142451565752395
  1.1056218533266291  0.6771422896941596 25.4297549507985892
  1.1060178877249596  2.6604576653671836 23.4240225023817459
