I  Zn Se Ti
 1.0000000000000000
     4.1166584955228034    0.0000000000000035    0.0000000000000000
    -2.0569432781444394    3.5668592393691041    0.0000000000000000
     0.0000000000000013    0.0000000000000022   42.0059561701162920
 I   Zn  Se  Ti 
   2   2   2   2
Cartesian
  0.4430198894255412  0.9693350734327177 14.9999999999999964
  0.4329208623123516  3.3367609443572950 20.3033500334364945
  2.4902331331629384  2.1452871905489741 18.8373937388954857
  2.5027107782809996  2.1613175287366748 16.4658492361148312
  0.5097327568099609  0.8638359748370952 23.4466247122490117
  0.5107666722826273  3.2411404130550423 27.0059561701162920
  0.5095346578653080  0.8639051569986436 26.0799428483176712
  0.5109648545295474  3.2410712581822021 24.3727093356637710
