I  Cu Ga Te Ga
 1.0000000000000000
     4.1627338917187959   -0.0000000000000000    0.0000000000000000
    -2.0813669475146046    3.6050692615728681    0.0000000000000000
    -0.0000000000000000    0.0000000000000000  -42.5450147015625717
 I   Cu  Ga  Te  Ga 
   2   2   1   2   1
Cartesian
  1.4581851595547577  0.0821240254934554 -27.5450147015625788
  1.4581851376376176  2.4855035452255985 -23.6892117709225793
  1.4581851595547581  0.0821240254934558 -24.9237156698025828
  1.4581851376376171  2.4855035452255976 -26.3079155470825796
  0.8566869548953149  3.3527487593944709 -16.2616229660160769
  2.9381043732093244  2.1510354043574855 -19.9886537406659102
  0.8566760335299251  0.9493815444458538 -14.9999999999999964
  0.8567265337574045  3.3527374326499908 -18.7270186934605860
