Br Cu Ga Se Ga
 1.0000000000000000
     3.8939371044331930    0.0000000000000000    0.0000000000000000
    -1.9469685537208086    3.3730758762570874    0.0000000000000000
     0.0000000000000000    0.0000000000000000   42.2937858378293612
 Br  Cu  Ga  Se  Ga 
   2   2   1   2   1
Cartesian
  1.4930763586855549  0.2262061917583638 15.0000000000000000
  1.4939812355479392  2.4739878724860183 18.6331282326220524
  1.4927340530898365  0.2264305698636502 17.4857902901367552
  1.4943214659583033  2.4737643088614849 16.1476785051133049
  0.6195571957897901  3.3804170170209069 26.1223268810018254
  2.5665851257558181  2.2560241387563260 22.4811026975899466
  0.6193751917046254  1.1318141533463351 27.2937858378293612
  0.6194345684039475  3.3804971508635129 23.6525612922448651
