Pb O  Cd F 
 1.0000000000000000
     3.5525112555274569   -0.0000000000000000    0.0000000000000000
    -1.7762556277637263    3.0765649945169340    0.0000000000000000
     0.0000000000000002   -0.0000000000000000   36.6077246144723674
 Pb  O   Cd  F  
   1   1   1   2
Cartesian
  2.0114550480515794  1.4265868871264138 15.9428404019710115
  0.2351994202878522  2.4521085519653916 15.0000000000000000
  0.5318513189576584  0.1693255997988238 20.5905629324431878
  2.3081069467213862  1.1948472646378017 21.6077246144723674
  0.5318513189576567  2.2203689294767797 19.5734012504140438
