Hf Te Ge Te
 1.0000000000000000
     3.9263921665618615   -0.0000000000000000    0.0000000000000000
    -1.9631960832809308    3.4003553614627888    0.0000000000000000
     0.0000000000000000    0.0000000000000000   39.0183054148008637
 Hf  Te  Ge  Te 
   1   2   1   1
Cartesian
 -0.5470066728013442  1.5424545577214381 16.8494380278571043
  1.4161894104795862  2.6759063448757012 18.6988761198817635
  1.4161894104795862  2.6759063448757012 14.9999999999999982
  2.0261264264533705  1.3459268161825815 24.0183054148008637
  0.0629303431724406  2.4793786033368441 22.4584841808914391
