Zr Te Sn S 
 1.0000000000000000
     3.7223189769720344   -0.0000000000000000    0.0000000000000000
    -1.8611594884860172    3.2236227950466843    0.0000000000000000
    -0.0000000000000000    0.0000000000000000  -42.7630830445966410
 Zr  Te  Sn  S  
   2   2   1   2
Cartesian
  2.1534061167472336  1.4027509446923108 -19.4970846171610646
  2.1534061167472336  1.4027509446923108 -16.8181936022182370
  0.2922466282612166  2.4772918763745388 -21.3152780539108875
  0.2922466282612167  2.4772918763745388 -14.9999999999999947
  0.1986857991746084  0.5800018514154699 -26.2855116418122137
  2.0598452876606257  1.6545427830976978 -24.8079402390277899
  0.1986857991746084  2.7290837147799261 -27.7630830445966374
