Mo S  Hf O 
 1.0000000000000000
     3.2192472618903381    0.0000000000000000    0.0000000000000000
    -1.6096236309451690    2.7879499098605285    0.0000000000000000
     0.0000000000000000    0.0000000000000000   38.9044683239354185
 Mo  S   Hf  O  
   1   2   1   2
Cartesian
 -0.2418012149388117  0.8840183151442061 16.5635563231757601
  1.3678224160063572  1.8133349517643822 18.1271126463515202
  1.3678224160063572  1.8133349517643822 15.0000000000000000
  0.5934080636554058  0.7971398243453031 22.9320387322019599
  2.2030316946005750  1.7264564609654791 23.9044683239354185
  0.5934080636554058  2.6557730975856551 21.9596091404685012
