I  Cu Mg I 
 1.0000000000000000
     4.1921788391080899    0.0000000000000000    0.0000000000000000
    -2.0960894183610641    3.6305333698088607    0.0000000000000000
     0.0000000000000000    0.0000000000000000   41.1034017376904330
 I   Cu  Mg  I  
   2   2   1   2
Cartesian
  1.1981967403220737  0.8499836523555759 14.9999999999999982
  1.1981967201565005  3.2703392443299273 18.8558029306399959
  1.1981967403220741  0.8499836523555762 17.6212990317599960
  1.1981967201565000  3.2703392443299268 16.2370991544799956
  0.7127192264922944  0.0971585752926154 24.4290840810225731
  2.8088086464439983  1.3073363652289034 26.1034017376904330
  0.7127192272876148  2.5175141551651912 22.7547664243547061
