In Te In Te Zn
 1.0000000000000000
     4.3552736779577845   -0.0000000000000000    0.0000000000000000
    -2.1776368377423960    3.7723031795232878    0.0000000000000000
    -0.0000000000000000    0.0000000000000000   43.2443042863612561
 In  Te  In  Te  Zn 
   1   2   1   2   2
Cartesian
  0.7587657317240776  3.3497446321696454 19.1831637923550566
  2.9364090068990802  2.0919166725307257 15.0000000000000000
  0.7587095383279375  0.8345611001054347 20.5577319829025171
  0.7587121367264640  3.3499410319391023 16.3745712080990309
  1.2131056677200864  0.2197882898783661 24.4845569202139046
  1.2132134772036349  2.7343762505645950 28.2443042863612561
  1.2129706153431010  0.2198753071439586 27.2955154152201729
  1.2133482973671028  2.7342888670217311 25.4336971272188315
