Pb Se Ga Te
 1.0000000000000000
     4.1039992213897580    0.0000000000000000    0.0000000000000000
    -2.0519996106948790    3.5541675828350785    0.0000000000000000
    -0.0000000000000000    0.0000000000000000   40.0648512617152051
 Pb  Se  Ga  Te 
   1   1   2   2
Cartesian
  1.9995103735465050  1.7139378428665668 16.5482420467417057
 -0.0524892371483738  2.8986603704782592 15.0000000000000036
  2.3375482973267041  1.4193357189465765 21.3179823762956318
  2.3375482973267041  1.4193357189465765 23.7918057995369594
  0.2855486866318256  2.6040582465582696 20.0449369019121306
  0.2855486866318256  2.6040582465582696 25.0648512617152051
