Ba Br I  Au
 1.0000000000000000
     4.8777101037335644   -0.0000000000000000    0.0000000000000000
    -2.4388550518667818    4.2244550919255515    0.0000000000000000
     0.0000000000000000    0.0000000000000000  -36.8945265806787361
 Ba  Br  I   Au 
   1   2   1   1
Cartesian
  1.2058461258899320  0.6339629275448453 -20.3376961417419011
  3.6447011777567160  2.0421146248533626 -18.7808657028050590
  1.2058461258899322  3.4502663221618799 -21.8945265806787361
  0.3708912510306741  1.6360069211771271 -14.9999999999999982
  2.8097463028974565  3.0443757070297561 -14.9999999999999982
