Zr Br Pb O 
 1.0000000000000000
     3.5776016232809460   -0.0000000000000000    0.0000000000000000
    -1.7888008116404730    3.0982938903817443    0.0000000000000000
    -0.0000000000000000    0.0000000000000000   38.5422040145423139
 Zr  Br  Pb  O  
   1   2   1   1
Cartesian
 -0.1190448913180569  1.2737821301628374 21.7160115920558709
  1.6697559203224159  2.3065467602900855 23.5422040145423139
  1.6697559203224159  2.3065467602900855 19.8898191615150637
  2.0430735428895317  1.7720260044058644 15.9428404019710150
  0.2542727312490590  2.8047906345331128 15.0000000000000000
