Ni S  Ga N 
 1.0000000000000000
     3.3110449657850718    0.0000000000000000    0.0000000000000000
    -1.6555224828925359    2.8674490534424493    0.0000000000000000
     0.0000000000000000    0.0000000000000000  -36.3391517059193916
 Ni  S   Ga  N  
   1   2   1   1
Cartesian
  0.5077171928738644  0.3632321276048542 -16.1754339282252602
  2.1632396757664005  1.3190484787523371 -15.0000000000000036
  0.5077171928738644  2.2748648298998204 -17.3508678564505168
  0.7767998545821171  2.1162446491711302 -21.3391517059193916
  2.4323223374746528  1.1604282980236473 -21.3391517059193916
