Cd I  Pb Br
 1.0000000000000000
     4.4057310860829810    0.0000000000000000    0.0000000000000000
    -2.2028655430414910    3.8154750427906663    0.0000000000000000
     0.0000000000000000    0.0000000000000000   39.8466530107895451
 Cd  I   Pb  Br 
   1   2   1   2
Cartesian
  0.6610240717357918  0.8886244395045997 16.7205164217779156
  2.8638896147772819  2.1604494537681553 18.4410328435558206
  0.6610240717357916  3.4322744680317108 15.0000000000000000
  0.6398686132620606  0.8745140114809016 23.1823813431499062
  2.8427341563035506  2.1463390257444566 24.8466530107895451
  0.6398686132620601  3.4181640400080111 21.5181096755102885
