Pb O  Zr S 
 1.0000000000000000
     3.6375928437267477   -0.0000000000000000    0.0000000000000000
    -1.8187964218633739    3.1502478112918406    0.0000000000000000
    -0.0000000000000000    0.0000000000000000   37.4959728692657350
 Pb  O   Zr  S  
   1   1   1   2
Cartesian
  1.9753896558914936  1.0861108080306334 15.9428404019710115
  0.1565932340281204  2.1361934117945798 15.0000000000000000
  0.9158280740079711  0.1973258471861030 21.0500904265216775
  2.7346244958713446  1.2474084509500494 22.4959728692657350
  0.9158280740079709  2.2974910547139960 19.6042079837775489
