Ca I  Pb Br
 1.0000000000000000
     4.3467784492214223    0.0000000000000000    0.0000000000000000
    -2.1733892246107112    3.7644205616484778    0.0000000000000000
     0.0000000000000000    0.0000000000000000   41.5758265920265515
 Ca  I   Pb  Br 
   1   2   1   2
Cartesian
  0.2054639478036178  1.4604404193961149 16.9490723290323366
  2.3788531724143289  2.7152472732789410 18.8981446580646484
  2.3788531724143289  2.7152472732789410 15.0000000000000000
  0.3029792578632232  1.6401103482061963 24.7343464504718789
  2.4763684824739345  2.8949172020890224 26.5758265920265444
  2.4763684824739345  2.8949172020890224 22.8928663089180979
