Hf I  Ti Te
 1.0000000000000000
     3.7549674768311885   -0.0000000000000000    0.0000000000000000
    -1.8774837384155942    3.2518972253201648    0.0000000000000000
     0.0000000000000000    0.0000000000000000   41.4709023564301660
 Hf  I   Ti  Te 
   1   2   1   2
Cartesian
  0.1656194471233130  1.4606463933267868 16.9476853944779826
  2.0431031855389072  2.5446121351001745 18.8953707810581477
  2.0431031855389072  2.5446121351001745 15.0000000000000036
  0.2831031301308672  1.4376592900267171 24.6823721680649513
  2.1605868685464613  2.5216250318001054 26.4709023564301589
  2.1605868685464613  2.5216250318001054 22.8938419797040567
