Ga Te Mg I 
 1.0000000000000000
     4.1687922084851632   -0.0000000000000000    0.0000000000000000
    -2.0843961042425816    3.6102799556467877    0.0000000000000000
     0.0000000000000000    0.0000000000000000   42.3407099528204398
 Ga  Te  Mg  I  
   2   2   1   2
Cartesian
  2.2144292445202267  1.5509323582842065 16.2730454743835047
  2.2144292445202267  1.5509323582842065 18.7468688976248323
  0.1300331402776456  2.7543590101664686 15.0000000000000000
  0.1300331402776455  2.7543590101664686 20.0199143598030780
  0.0523012307842224  0.8079703653822374 25.6663922961525763
  2.1366973350268026  2.0113970172645010 27.3407099528204398
  0.0523012307842224  3.2148236691467642 23.9920746394847093
