Al N  B  P 
 1.0000000000000000
     3.1752071000929618    0.0000000000000000    0.0000000000000000
    -1.5876035500464809    2.7498100109572237    0.0000000000000000
     0.0000000000000000    0.0000000000000000   33.9824425412549047
 Al  N   B   P  
   1   1   1   1
Cartesian
  0.2255164263905120  1.7672947763507934 15.0000000000000036
  1.8131199764369932  0.8506914393650520 15.0000000000000000
  0.0538768103640233  2.1030767049175569 18.9824425412549047
  1.6414803604105050  1.1864733679318156 18.9824425412549047
