W  Se S  Ir
 1.0000000000000000
     3.2991569224216635    0.0000000000000000    0.0000000000000000
    -1.6495784602742356    2.8574720675635445    0.0000000000000000
     0.0000000000000000    0.0000000000000000  -41.7879277142100349
 W   Se  S   Ir 
   1   2   2   2
Cartesian
 -0.4815716499775169  1.3029589070818357 -25.1086513120136203
  1.1680068115455136  2.2554495962696839 -23.4293749098172128
  1.1680068115455136  2.2554495962696839 -26.7879277142100314
  1.2914171179987117  0.9528323544666968 -19.6502937780201492
  1.2912681183577388  2.8579577279671620 -14.9999999999999964
  1.2912255249128677  0.9531829377356029 -16.2526683104745437
  1.2914599582759207  2.8576068775847516 -18.3976093190058236
