Hf Cl Zr O 
 1.0000000000000000
     3.3090980125557969    0.0000000000000000    0.0000000000000000
    -1.6545490062778985    2.8657629424859175    0.0000000000000000
     0.0000000000000000    0.0000000000000000   39.2469181912766629
 Hf  Cl  Zr  O  
   1   2   1   2
Cartesian
 -0.5318522109215379  1.1399248133742990 16.7299570918342511
  1.1226967953563607  2.0951791275362712 18.4599141836685092
  1.1226967953563607  2.0951791275362712 14.9999999999999982
  0.4051754348664055  0.9266709933060706 23.2855862188450864
  2.0597244411443034  1.8819253074680429 24.2469181912766629
  0.4051754348664055  2.8371796216300158 22.3242542464135063
