Ti Se Ge S 
 1.0000000000000000
     3.4918133357784651   -0.0000000000000000    0.0000000000000000
    -1.7459066678892325    3.0239990540574322    0.0000000000000000
     0.0000000000000000    0.0000000000000000   38.4769655584544665
 Ti  Se  Ge  S  
   1   2   1   1
Cartesian
 -0.3552002130416845  1.0192431952025194 16.6199398271809464
  1.3907064548475481  2.0272428798883300 18.2398796543619532
  1.3907064548475481  2.0272428798883300 15.0000000000000000
  2.2025705519086491  1.3372169927247550 23.4769655584544665
  0.4566638840194170  2.3452166774105656 22.1159328894515248
