I  Cu Hg Br
 1.0000000000000000
     4.1601123054529126    0.0000000000000000    0.0000000000000000
    -2.0800561515334755    3.6027629370521650    0.0000000000000000
     0.0000000000000000    0.0000000000000000   40.9326508406894973
 I   Cu  Hg  Br 
   2   2   1   2
Cartesian
  1.1900358492693377  0.8463189956096215 15.0000000000000018
  1.1900358292640969  3.2481609656536081 18.8558029306400030
  1.1900358492693379  0.8463189956096220 17.6212990317599996
  1.1900358292640967  3.2481609656536077 16.2370991544799992
  0.7137749791934216  0.0884247209362978 24.3432432645586871
  2.7938311323175369  1.2893456999536863 25.9326508406894902
  0.7137749799887418  2.4902666789710750 22.7538356884278912
