Ba Cl Pb I 
 1.0000000000000000
     4.5179508594204316    0.0000000000000000    0.0000000000000000
    -2.2589754297102158    3.9126602173078311    0.0000000000000000
     0.0000000000000000    0.0000000000000000   41.4442112372939704
 Ba  Cl  Pb  I  
   1   2   1   2
Cartesian
  0.1800695181223386  1.5246800698405414 16.6919307837616309
  2.4390449478325547  2.8289001422764848 18.3838615675232617
  2.4390449478325547  2.8289001422764848 15.0000000000000000
  0.2285886179762083  1.6583287503080881 24.4131147092447165
  2.4875640476864240  2.9625488227440315 26.4442112372939704
  2.4875640476864240  2.9625488227440315 22.3820181811954555
