Bi Se Bi Sb Se Sb
 1.0000000000000000
     4.8668847992549589    0.0000000000000000    0.0000000000000000
    -2.4334423996274794    4.2149413360570964    0.0000000000000000
    -0.0000000000000000    0.0000000000000000   40.5593850521059167
 Bi  Se  Bi  Sb  Se  Sb 
   1   2   1   1   2   1
Cartesian
  0.5913544592622837  3.8469598114908305 18.4333819894917923
  3.0296340355582734  2.4418296811275475 14.9999999999999964
  0.5906939539438771  1.0367879313745956 18.7935956777987592
  0.5955208121999992  3.8477038837816413 15.3602255416993927
  0.7712594721123771  3.1429521294790388 25.2640995153670964
  3.2090323245268975  1.7428164118941964 22.0724349326634126
  0.7704356428051937  0.3333126768584670 25.5593850521059238
  0.7747342343654859  3.1479427369779276 22.3676277179797793
