Ga S  Pt Se
 1.0000000000000000
     3.6967938642739702    0.0000000000000000    0.0000000000000000
    -1.8483969321369851    3.2015173990157000    0.0000000000000000
     0.0000000000000000    0.0000000000000000   41.2606787784549027
 Ga  S   Pt  Se 
   2   2   1   2
Cartesian
  2.0139866854329540  1.4671838355027531 16.0940275853641523
  2.0139866854329540  1.4671838355027531 18.5727461466075070
  0.1655897532959690  2.5343563018413189 15.0000000000000000
  0.1655897532959690  2.5343563018413189 19.6667737319714995
 -0.1565006169122107  0.7213865436210321 24.9508700566471582
  1.6918963152247746  1.7885590099595987 26.2606787784549027
 -0.1565006169122108  2.8557314762981658 23.6410613287497711
