Pb Br I  Cd
 1.0000000000000000
     4.3543857288679853    0.0008383076656587    0.0000000000000000
    -2.1764608847170441    3.7782637314298899    0.0000000000000000
    -0.0000000000000033   -0.0000000000000000  -42.2968088642974180
 Pb  Br  I   Cd 
   1   2   2   2
Cartesian
 -0.4783598618273024  1.5739546102604205 -25.4553287227436336
  1.6990769958456735  2.8339347258474890 -23.6138485811889680
  1.6990769958456726  2.8339347258474890 -27.2968088642974180
  1.4690808172163798 -0.1042305571429647 -20.9102076548876994
  1.4806007821668059  4.9021729433408652 -15.0000000000000000
  1.4857660357471267  2.3857217745148005 -16.6115655986229598
  1.4669843728679373  2.4100396745087433 -19.2985898916887635
