Pb Te I  Hg
 1.0000000000000000
     4.3897217869339036   -0.0000000000000011    0.0000000000000000
    -2.1948608921944128    3.8175094667205629    0.0000000000000000
    -0.0000000000000033    0.0000000000000000  -40.5712044123823858
 Pb  Te  I   Hg 
   1   1   2   2
Cartesian
  2.9389387784102405  1.7184494338225382 -23.8866975303359013
  0.7440778853674681  2.9909525893960596 -25.5712044123823787
  1.1268763382828118 -0.2667304708173981 -20.9242317454966695
  1.1364885817749013  4.7883095057734417 -15.0000000000000000
  1.1449474800648862  2.2469365674789969 -16.6201123207575918
  1.1237254480709593  2.2708364364117366 -19.3035734902438172
