Pb S  Pb Se
 1.0000000000000000
     3.9741603314471310   -0.0000000000000000    0.0000000000000000
    -1.9870801657235655    3.4417238057455997    0.0000000000000000
    -0.0000000000000000    0.0000000000000000   38.3085703507232296
 Pb  S   Pb  Se 
   1   1   1   2
Cartesian
  2.2727966587602593  1.6911218797037071 16.4391638847389387
  0.2857164930366941  2.8383631482855733 14.9999999999999982
  0.6850983901591883  0.4035420946011621 21.6394711942227786
  2.6721785558827538  1.5507833631830288 23.3085703507232296
  0.6850983901591882  2.6980246317648953 19.9703720377223206
