Br Cd Bi O 
 1.0000000000000000
     4.0402759686513114    0.0014024937248978    0.0000000000000000
    -2.0189133788238252    3.5047994474902837    0.0000000000000000
     0.0000000000000033    0.0000000000000000   42.6750357627078785
 Br  Cd  Bi  O  
   2   2   2   2
Cartesian
  1.1961749248817057 -0.3476093731312460 14.9999999999999982
  1.2092889856836042  4.3022563352813270 20.7228492099077997
  1.2090961629746355  1.9658875364518669 19.2010592037222949
  1.1959604511390804  1.9890887645236792 16.5215258816320940
  2.3987251804172951  1.4740639120403074 24.3944705155163284
  2.3987251804172955  1.4740639120403074 27.5470867189591075
  0.3789953979255828  2.6418628966287692 24.2665213699663873
  0.3789953979255830  2.6418628966287692 27.6750357627078785
