Ti I  Cl Pt
 1.0000000000000000
     3.7001357641355095    0.0000000000000002    0.0000000000000000
    -1.8500678810306128    3.2049793193830460    0.0000000000000000
    -0.0000000000000002    0.0000000000000000   41.1468865649548690
 Ti  I   Cl  Pt 
   1   2   2   2
Cartesian
 -0.4222844733564697  1.4104783336725852 16.8143657812576173
  1.4277834090569987  2.4788047734669343 18.6287315661405373
  1.4277834090569987  2.4788047734669343 14.9999999999999982
 -0.6720674297903528  1.7905385912142144 21.9635565229753524
  3.0269323632028695  1.7917220708129376 26.1468865649548690
  1.1777010542037660  0.7232660573890821 24.7981037006987322
  1.1779220555389214  2.8594786565361261 23.3143406510403608
