Se Ti Tl S  Tl
 1.0000000000000000
     4.0513366823224182    0.0000000000000000    0.0000000000000000
    -2.0256683400068676    3.5094894043155733    0.0000000000000000
     0.0000000000000000    0.0000000000000000   42.4282860436556390
 Se  Ti  Tl  S   Tl 
   2   2   1   2   1
Cartesian
  1.1464657101065518  0.0895665185469380 15.0000000000000000
  1.1465741322791867  2.4286340782283733 18.5593314578672803
  1.1462707280768090  0.0896345879734636 17.6333181360686524
  1.1467691962789481  2.4285660356516403 15.9260846234147593
  0.7903389722039319  3.0372864913568507 26.2314286578240683
  2.8158617232152228  1.8669946559770312 22.1505386314986659
  0.7900137793426681  0.6973273409074767 27.4282860436556390
  0.7898681855648202  3.0377509509272143 23.3473939128101193
