Hg Se In Te
 1.0000000000000000
     4.4168519275699580    0.0000000000000000    0.0000000000000000
    -2.2084259637849790    3.8251059740298485    0.0000000000000000
    -0.0000000000000000    0.0000000000000000   39.2455943412189754
 Hg  Se  In  Te 
   1   1   2   2
Cartesian
  2.1316983239469605  2.2249473742585546 15.3939973822751668
 -0.0767276398380180  3.4999826989351708 15.0000000000000000
  1.1645804023894311  1.9484301966311168 20.0524522521127011
  1.1645804023894311  1.9484301966311168 22.8646400030309920
 -1.0438455613955477  3.2234655213077330 18.6714979139104464
 -1.0438455613955480  3.2234655213077330 24.2455943412189754
