Hf Se W  Te
 1.0000000000000000
     3.6134520087503161    0.0000000000000000    0.0000000000000000
    -1.8067260043751581    3.1293412349336833    0.0000000000000000
     0.0000000000000000    0.0000000000000000   40.9718988042608387
 Hf  Se  W   Te 
   1   2   1   2
Cartesian
  0.2172571688643830  1.0015442554999843 16.6825459715619751
  2.0239831732395404  2.0446580004778787 18.3650919482088710
  2.0239831732395404  2.0446580004778787 15.0000000000000000
  0.1780907139046422  1.3658757951949991 24.1599365910273711
  1.9848167182798002  2.4089895401728936 25.9718988042608387
  1.9848167182798002  2.4089895401728936 22.3479743777939035
