S  Ti Tl S  Tl
 1.0000000000000000
     3.9894459078719633   -0.0000000000000000    0.0000000000000000
    -1.9947229528169934    3.4558072269485169    0.0000000000000000
     0.0000000000000000    0.0000000000000000   42.1407473403800381
 S   Ti  Tl  S   Tl 
   2   2   1   2   1
Cartesian
  1.2043013538705585  0.1939015579583214 15.0000000000000000
  1.2045163445442095  2.4971656717250599 18.2247483793411575
  1.2042315746035650  0.1939094165713465 17.4814467457056111
  1.2045861516960168  2.4971578167174662 15.7433429186812166
  0.7513291325280123  3.0234641511755722 25.9438899545484709
  2.7459087204469421  1.8710734423245357 21.8629999282230649
  0.7510089075298194  0.7192977009382642 27.1407473403800381
  0.7508655379225355  3.0239215062363716 23.0598552095345184
