Hf Br Zn Cl
 1.0000000000000000
     3.5495322824587454    0.0000000000000000    0.0000000000000000
    -1.7747661412293729    3.0739851281622350    0.0000000000000000
     0.0000000000000000    0.0000000000000000   40.2376655196368205
 Hf  Br  Zn  Cl 
   1   2   1   2
Cartesian
 -0.3932444399873987  1.1326670042271736 16.8486980501143790
  1.3815217012419740  2.1573287136145849 18.6973960898101055
  1.3815217012419740  2.1573287136145849 15.0000000000000000
  0.4405687688946960  0.9053806987746105 23.8701985310547045
  2.2153349101240680  1.9300424081620218 25.2376655196368205
  0.4405687688946960  2.9547041175494333 22.5027315424725671
