Se Zn S  Zr
 1.0000000000000000
     4.1353195098750053    0.0000000000000000    0.0000000000000000
    -2.0676597525753420    3.5819567575559290    0.0000000000000000
    -0.0000000000000000    0.0000000000000000   40.0301960921156947
 Se  Zn  S   Zr 
   2   2   2   2
Cartesian
  1.2717784252355491  0.9923682226083913 15.0000000000000000
  1.2718852681064940  3.3802040327040155 18.4133035906909797
  1.2716763855068525  0.9924239246992649 17.6556971816099164
  1.2719872780017034  3.3801483286002609 15.7579816020882362
  1.1843556718924995  0.7664234553415776 21.7023343760040746
  1.1846367855465167  3.1539450964041067 25.0301960921156947
  1.1844248788851117  0.7663421075729362 24.3261429787457928
  1.1845675677176211  3.1540264470932402 22.4064254957065430
