Ti Te Sn Se
 1.0000000000000000
     3.8008104297237155    0.0000000000000000    0.0000000000000000
    -1.9004052148618578    3.2915983871095866    0.0000000000000000
     0.0000000000000000    0.0000000000000000   40.6388461964485472
 Ti  Te  Sn  Se 
   1   2   1   2
Cartesian
 -0.3459599743175686  1.4105770799377804 16.7885301883608946
  1.5544452405442892  2.5077765423076426 18.5770603767261022
  1.5544452405442892  2.5077765423076426 15.0000000000000000
  0.6812406259622661  0.7805987618876893 24.0459151768743418
  2.5816458408241241  1.8777982242575515 25.6388461964485472
  0.6812406259622661  2.9749976866274137 22.4529841573000759
