Pb Cl S  Cd
 1.0000000000000000
     4.2478005993548322   -0.0000000000000000    0.0000000000000000
    -2.1239002984448758    3.6801689933492279    0.0000000000000000
     0.0000000000000000    0.0000000000000000   40.1826036549651491
 Pb  Cl  S   Cd 
   1   2   2   2
Cartesian
 -0.4536014827021619  1.6744821152610656 16.7004028302812522
  1.6702988173861011  2.9012051130441416 18.4008056605625043
  1.6702988173861011  2.9012051130441416 15.0000000000000000
  1.2622025878437235  0.7359923639258587 21.9451952511177950
  1.2625171746249997  3.1882242678113490 25.1826036549651491
  1.2618361392172559  0.7360617529078687 24.7585450966804679
  1.2628838463438443  3.1881549010198618 22.3691461437773640
