Se Hf Ge I 
 1.0000000000000000
     4.2830256337851873   -0.0000000000000000    0.0000000000000000
    -2.1415128156743002    3.7099128780316803    0.0000000000000000
     0.0000000000000000    0.0000000000000000   41.1119276636993902
 Se  Hf  Ge  I  
   2   2   1   2
Cartesian
  1.2729025625482238  0.7094115469898548 15.0000000000000000
  1.2731677566522495  3.1821123941784273 18.6912765295358660
  1.2729641006114214  0.7093439427900022 17.7686483511876112
  1.2731062940424316  3.1821800510337996 15.9230671053787347
  0.7259512942375987  0.2132343804660222 24.3671517697181486
  2.8674641115362904  1.4498720064765818 26.1119276636993902
  0.7259512950497945  2.6865096324871418 22.6223758757368962
