Cl Pt Ni Se
 1.0000000000000000
     3.5865477236506935    0.0000000000000002    0.0000000000000000
    -1.7932738607882048    3.1066091907570996    0.0000000000000000
    -0.0000000000000002    0.0000000000000000   39.1845215909038984
 Cl  Pt  Ni  Se 
   2   2   1   2
Cartesian
 -0.4510149740395330  1.9011794597664422 20.0011915489243890
  3.1344316509017700  1.9023266149372202 24.1845215909039055
  1.3419686807266287  0.8666646213798965 22.8357387266477687
  1.3421828977079973  2.9373106482624700 21.3519756769893974
  0.7937245572269563  0.1821726546747617 16.2453409434781548
  2.5869984193980167  1.2177090515937947 17.4906818874949650
  0.7937245579183841  2.2532454485128279 14.9999999999999964
