Ti Te Cl Pt
 1.0000000000000000
     3.6840638054360304    0.0000000000000002    0.0000000000000000
    -1.8420319016808733    3.1910605948607227    0.0000000000000000
    -0.0000000000000002    0.0000000000000000   41.0721800199027314
 Ti  Te  Cl  Pt 
   1   2   2   2
Cartesian
 -0.2757263523482256  1.4173455711599554 16.7885301883608946
  1.5663055507155037  2.4810324361135296 18.5770603767261022
  1.5663055507155037  2.4810324361135296 15.0000000000000000
 -0.5583737389973498  1.7585674898855177 21.8888499779232149
  3.1245590295156904  1.7597458298172195 26.0721800199027314
  1.2833600661149660  0.6959299539521702 24.7233971556465946
  1.2835801075087985  2.8228653154868457 23.2396341059882232
