Pb Se Br Cd
 1.0000000000000000
     4.0910052369143983    0.0014024937248978    0.0000000000000000
    -2.0442780129553677    3.5487322825215042    0.0000000000000000
     0.0000000000000031    0.0000000000000000   40.3682869936195914
 Pb  Se  Br  Cd 
   1   1   2   2
Cartesian
  2.7787333359490485  1.6231946989461885 16.5482420467416986
  0.7336389193257928  2.8056379618783902 14.9999999999999964
  1.0565730835977416 -0.2328691691853504 19.6454377837117917
  1.0698314076575821  4.4752711269894370 25.3682869936195914
  1.0696464117940274  2.1096216851172089 23.8464969874340866
  1.0563456675943057  2.1331137407374392 21.1669636653438857
