Pb S  Mg Br
 1.0000000000000000
     3.9163233650821683   -0.0000000000000000    0.0000000000000000
    -1.9581616825410841    3.3916355235957161    0.0000000000000000
    -0.0000000000000000    0.0000000000000000   37.9011894667812044
 Pb  S   Mg  Br 
   1   1   1   2
Cartesian
  2.3645320903692246  1.4098953707851201 16.4391638847389423
  0.4063704078281410  2.5404405453170251 15.0000000000000000
  0.7912636936210067  0.4293843353450361 21.3941638183654383
  2.7494253761620890  1.5599295098769426 22.9011894667811973
  0.7912636936210066  2.6904746844088492 19.8871381699496794
