Hg Se I  In
 1.0000000000000000
     4.4712785326813105   -0.0000000000000000    0.0000000000000000
    -2.2356392650614980    3.8737048748570300    0.0000000000000000
     0.0000000000000000    0.0000000000000000   40.5912225991155253
 Hg  Se  I   In 
   1   1   2   2
Cartesian
  2.5528553799984861  1.5311400922247089 15.3939973822751650
  0.3172161140842174  2.8223750505103862 15.0000000000000000
  1.4862893452684398  1.2446736954356463 19.2387580262358924
  1.4863499542952050  3.8265808571510278 25.5912225991155253
  1.4855562395227246  1.2451150704426128 23.7325481996491945
  1.4870831947828438  3.8261399402577738 21.0982410274361243
