Sn F  I  Au
 1.0000000000000000
     4.8769962485307090   -0.0000000000000000    0.0000000000000000
    -2.4384981242653536    4.2238368751833653    0.0000000000000000
     0.0000000000000012    0.0000000000000020   38.3811673664643536
 Sn  F   I   Au 
   2   2   1   1
Cartesian
  1.7718787275396284  0.7242750410410272 16.9573065799956453
  1.7718787308124082  3.5401662911632710 17.5124529325828640
  1.7718787275396284  0.7242750410410271 15.0000000000000000
  1.7718787308124082  3.5401662911632710 19.4697595286346541
 -0.2056585442942356  1.4299081868771391 23.3811673664643536
  2.2328395799711194  2.8380708687131224 23.3811673664643536
