Mo S  Pt O 
 1.0000000000000000
     3.1659558167747912    0.0000000000000000    0.0000000000000000
    -1.5829779083873956    2.7417981645860809    0.0000000000000000
     0.0000000000000000    0.0000000000000000   33.4493928285771958
 Mo  S   Pt  O  
   1   2   1   2
Cartesian
 -1.0794177515574024  1.6627171932114926 16.5635563231757601
  0.5035601568299932  2.5766499147401865 18.1271126463515202
  0.5035601568299932  2.5766499147401865 15.0000000000000000
  0.6794087282859618  0.7529326283915186 17.5064750511237222
  2.2623866366733574  1.6668653499202124 18.4493928285771958
  0.6794087282859618  2.5807980714489061 16.5635572736702557
