Se Ti Bi O 
 1.0000000000000000
     4.0090114451163288    0.0000000000000000    0.0000000000000000
    -2.0045057214038229    3.4728346736738978    0.0000000000000000
     0.0000000000000000    0.0000000000000000   40.9300281414924996
 Se  Ti  Bi  O  
   2   2   2   2
Cartesian
  0.7708211202731777  0.7450035675943762 15.0000000000000018
  0.7709284097427144  3.0596408237543438 18.5593314578672803
  0.7706281752651162  0.7450709260723259 17.6333181360686559
  0.7711214358644346  3.0595734918457547 15.9260846234147593
  2.3770391655241463  1.5221860533763039 22.6494628943009495
  2.3770391655241463  1.5221860533763039 25.8020790977437287
  0.3725334433507621  2.6797976112676025 22.5215137487510120
  0.3725334433507621  2.6797976112676025 25.9300281414924996
