W  Te Pb O 
 1.0000000000000000
     3.5714950530060827   -0.0000000000000000    0.0000000000000000
    -1.7857475265030414    3.0930054453937181    0.0000000000000000
     0.0000000000000000    0.0000000000000000  -38.5141086508763308
 W   Te  Pb  O  
   1   2   1   1
Cartesian
 -0.1191017856839222  1.2720651600934567 -16.8119622132334641
  1.6666457408191191  2.3030669752246959 -15.0000000000000000
  1.6666457408191191  2.3030669752246959 -18.6239244264669317
  2.0400832133134275  1.7704563645696143 -22.5712682489053194
  0.2543356868103862  2.8014581797008540 -23.5141086508763308
