Pb Te Mg I 
 1.0000000000000000
     4.2656326836980902    0.0000000000000000    0.0000000000000000
    -2.1328163418490451    3.6941462672957317    0.0000000000000000
     0.0000000000000000    0.0000000000000000   38.4964599506446206
 Pb  Te  Mg  I  
   1   1   1   2
Cartesian
  2.3297839003987062  1.3542868865287330 16.6845068820464775
  0.1969675585496611  2.5856689756273097 15.0000000000000000
  0.8746289867221608  0.2663811354503391 21.8221422939767606
  3.0074453285712046  1.4977632245489174 23.4964599506446206
  0.8746289867221608  2.7291453136474959 20.1478246373088936
