Mo Te Ti Te
 1.0000000000000000
     3.5777928096452913    0.0000000000000000    0.0000000000000000
    -1.7888964048226457    3.0984594626301245    0.0000000000000000
    -0.0000000000000000    0.0000000000000000  -43.2940568970854258
 Mo  Te  Ti  Te 
   1   2   2   2
Cartesian
 -0.4140842378705140  1.1482189370771043 -26.4889568970854263
  1.3748121669521314  2.1810387579538131 -24.6838568970854269
  1.3748121669521314  2.1810387579538131 -28.2940568970854258
  2.2361965091219465  1.5000382849524077 -19.0942779024546603
  2.2361965091219465  1.5000382849524077 -16.7151615237054081
  0.4473001042993009  2.5328581058291153 -20.8094364375122680
  0.4473001042993009  2.5328581058291153 -15.0000000000000000
