Pb O  Hg F 
 1.0000000000000000
     3.6260254022926555   -0.0000000000000000    0.0000000000000000
    -1.8130127011463257    3.1402301131531263    0.0000000000000000
     0.0000000000000001    0.0000000000000000   36.6483921994569783
 Pb  O   Hg  F  
   1   1   1   2
Cartesian
  2.0054068754585042  1.5550936763105674 15.9428404019710133
  0.1923941743121773  2.6018370473616095 15.0000000000000000
  0.5363938441242925  0.1937204981590416 20.6197200470967630
  2.3494065452706110  1.2404638692100836 21.6483921994569783
  0.5363938441242910  2.2872072402611252 19.5910478947365760
