Br Pt Sn S 
 1.0000000000000000
     3.7260588848648348    0.0000194514724014    0.0000000000000000
    -1.8630125898080283    3.2268870364766866    0.0000000000000000
    -0.0000000000000002   -0.0000000000000000   40.5951765622949807
 Br  Pt  Sn  S  
   2   2   1   2
Cartesian
 -0.7513152504343574  1.7959857837445448 15.0000000000000018
  2.9746176010557219  1.7961459642984281 19.3348512724562198
  1.1115091124288763  0.7203755740408352 17.8923023562523369
  1.1115518770436372  2.8716025669818190 16.4415417443947689
  0.7930201589872746  0.2036278842397659 24.1176051595105534
  2.6560552189611557  1.2792698640469289 25.5951765622949807
  0.7930313940702007  2.3548923923816911 22.6400337567261332
