Mg Cl Sn S 
 1.0000000000000000
     3.6844408786285991    0.0000000000000000    0.0000000000000000
    -1.8422204393142998    3.1908193996342242    0.0000000000000000
     0.0000000000000000    0.0000000000000000   39.1394310558208502
 Mg  Cl  Sn  S  
   1   2   1   2
Cartesian
  0.5104186387873217  0.6918213464611871 16.3729058647441263
  2.3526390781016211  1.7554278130059287 17.7458117294882669
  0.5104186387873222  2.8190342795506700 14.9999999999999982
  0.6033995650462873  0.6867405881154240 22.6618596530364300
  2.4456200043605874  1.7503470546601654 24.1394310558208502
  0.6033995650462872  2.8139535212049069 21.1842882502520027
