Pb S  Zn I 
 1.0000000000000000
     4.0245040744918823   -0.0000000000000000    0.0000000000000000
    -2.0122520372459411    3.4853227661439505    0.0000000000000000
    -0.0000000000000000    0.0000000000000000   38.2108033091374750
 Pb  S   Zn  I  
   1   1   1   2
Cartesian
  2.2175363395935017  1.1378866671965453 16.4391638847389423
  0.2052843023475607  2.2996609225778619 15.0000000000000000
  0.9504472550955569  0.2367748120255109 21.5833975406250929
  2.9626992923414974  1.3985490674068277 23.2108033091374750
  0.9504472550955565  2.5603233227881450 19.9559917721127036
