Ge Se Pt Se
 1.0000000000000000
     3.7072380686099446    0.0000000000000000    0.0000000000000000
    -1.8536190343049723    3.2105623452929692    0.0000000000000000
    -0.0000000000000000    0.0000000000000000   37.6979077656310295
 Ge  Se  Pt  Se 
   1   1   1   2
Cartesian
  2.0055539740624972  1.1610567278693278 16.4473597337136113
  0.1519349397575253  2.2312441763003172 15.0000000000000000
  0.7611914732481191  0.1450124741152805 21.3880990438232814
  2.6148105075530914  1.2151999225462704 22.6979077656310295
  0.7611914732481189  2.2853873709772601 20.0782903159258979
