Br Sb Cl Sb
 1.0000000000000000
     5.2302711577983043   -0.0000000000000002    0.0000000000000000
    -2.6151355759115384    4.5318544513549082    0.0000000000000000
    -0.0000000000000006    0.0000000000000000   42.2119735059436039
 Br  Sb  Cl  Sb 
   2   2   2   2
Cartesian
  1.4594849900366751  1.0739622161412530 15.0000000000000000
  1.4808694595695748  4.0838821004171111 20.0399298323805937
  1.4690820110779714  1.0689627379470776 17.5661466727446722
  1.4712719819437539  4.0888854143818394 17.4738237141955430
  1.5774854651956760  0.9451853034743627 22.5183544536688380
  1.5934804403928307  3.9579413008614157 27.2119735059436039
  1.5844146263266379  0.9417123980080748 24.9234384457770304
  1.5865223488205760  3.9614320664119980 24.8068146701130061
