Hf Br Ge S 
 1.0000000000000000
     3.4942651756806535   -0.0000000000000000    0.0000000000000000
    -1.7471325878403268    3.0261224096987398    0.0000000000000000
     0.0000000000000000    0.0000000000000000  -39.0093525088877442
 Hf  Br  Ge  S  
   1   2   1   1
Cartesian
 -0.1042804201904737  1.2439831081128265 -16.8486980396957335
  1.6428521676498531  2.2526905780124062 -15.0000000000000053
  1.6428521676498531  2.2526905780124062 -18.6973960898101090
  2.0076645541835600  1.7413740945191842 -22.6483198398848060
  0.2605319663432337  2.7500815644187639 -24.0093525088877477
