Tl S  Pt Te
 1.0000000000000000
     4.0366367630040934   -0.0000000000000000    0.0000000000000000
    -2.0183183815020467    3.4958299826117285    0.0000000000000000
     0.0000000000000000    0.0000000000000000   41.4132774449577283
 Tl  S   Pt  Te 
   2   2   1   2
Cartesian
  2.2585283587678440  1.4901034208553652 22.3295176367024375
  2.2585283587678440  1.4901034208553652 25.2154351284925760
  0.2402099772657975  2.6553800817259412 21.1316753202377612
  0.2402099772657974  2.6553800817259412 26.4132774449577283
  0.2262755250825614  0.6466858023563712 16.3872142285970241
  2.2445939065846074  1.8119624632269473 17.7744284581505383
  0.2262755250825614  2.9772391240975233 14.9999999999999982
