Zr I  Si F 
 1.0000000000000000
     3.8866825717315798    0.0000000000000000    0.0000000000000000
    -1.9433412858634129    3.3659658435646556    0.0000000000000000
     0.0000000000000013    0.0000000000000022   41.4168751176109637
 Zr  I   Si  F  
   1   2   2   2
Cartesian
 -0.5324731559070736  1.4753133208419913 16.9391452359630961
  1.4108681299595087  2.5973019353635434 18.8782904725522265
  1.4108681299595085  2.5973019353635434 15.0000000000000000
  1.0921130898662510  0.7802786383301598 24.0706190217500655
  1.0921130879346108  3.0242558673732627 24.7744460821703960
  1.0921130898662510  0.7802786383301593 22.4281899863105174
  1.0921130879346108  3.0242558673732631 26.4168751176109637
