Sn I  S  Cd
 1.0000000000000000
     4.3675193981962366   -0.0000000000000000    0.0000000000000000
    -2.1837596978655780    3.7838485144564431    0.0000000000000000
     0.0000000000000000    0.0000000000000000   40.8315127199423671
 Sn  I   S   Cd 
   1   2   2   2
Cartesian
 -0.3230032920491236  1.4422535228430686 17.0138547965808051
  1.8607564074598417  2.7035363609952161 19.0277095931616103
  1.8607564074598417  2.7035363609952161 15.0000000000000000
  1.2428992197501263  0.9997782506259675 22.5941043160950130
  1.2432226727322471  3.5210956312648771 25.8315127199423671
  1.2425224432402342  0.9998495944683217 25.4074541616576823
  1.2435996786220880  3.5210243102382077 23.0180552087545820
