Hf Cl Mo Se
 1.0000000000000000
     3.3345642032390383    0.0000000000000000    0.0000000000000000
    -1.6672821016195192    2.8878173105552229    0.0000000000000000
     0.0000000000000000    0.0000000000000000   40.7945274268274645
 Hf  Cl  Mo  Se 
   1   2   1   2
Cartesian
  0.2065950412605335  1.3549442137178316 16.7299570918342546
  1.8738771428800527  2.3175499839029059 18.4599141836685092
  1.8738771428800527  2.3175499839029059 15.0000000000000000
  0.3853342376437396  1.3303786484493361 24.1254979500642577
  2.0526163392632588  2.2929844186344104 25.7945274268274645
  2.0526163392632588  2.2929844186344104 22.4564684733010509
