Ge Te Pb S 
 1.0000000000000000
     3.9462835892940014   -0.0000000000000000    0.0000000000000000
    -1.9731417946470007    3.4175818388662371    0.0000000000000000
     0.0000000000000000    0.0000000000000000   36.4048598574676134
 Ge  Te  Pb  S  
   1   1   1   1
Cartesian
  2.1921855638946770  1.3474897194664301 16.5598212339094246
  0.2190437692476768  2.4866836657551756 14.9999999999999982
  2.3477640627657403  1.2568126050742308 21.4048598574676134
  0.3746222681187399  2.3960065513629765 19.9656959727286747
