Hf Cl Se Ir
 1.0000000000000000
     3.3787509014449588   -0.0000000000000000    0.0000000000000000
    -1.6893754497490927    2.9309980990445776    0.0000000000000000
    -0.0000000000000000    0.0000000000000000   41.8804157344536847
 Hf  Cl  Se  Ir 
   1   2   2   2
Cartesian
 -0.3050998412616585  1.4258913650790639 16.7299570918342546
  1.3842756097852833  2.4028907314272558 18.4599141836685092
  1.3842756097852833  2.4028907314272558 15.0000000000000000
  1.0678821995329870  0.7131656485231015 22.1056719978067733
  1.0676298522384204  2.6663527905309956 26.8804157344536847
  1.0675615367408913  0.7154861662214089 25.4959255286770308
  1.0679506164707981  2.6640303110370085 23.4901930802601875
