W  Te Mg Cl
 1.0000000000000000
     3.6115009693157178    0.0000000000000000    0.0000000000000000
    -1.8057504846578591    3.1276515852195361    0.0000000000000000
     0.0000000000000000    0.0000000000000000  -40.0549513921886984
 W   Te  Mg  Cl 
   1   2   1   2
Cartesian
 -0.7766303373334402  1.4814530156699235 -16.8119622132334641
  1.0291201473244189  2.5240035440764350 -15.0000000000000000
  1.0291201473244189  2.5240035440764350 -18.6239244264669317
  0.7301472077599713  1.0917227701958983 -23.6820455274445649
  2.5358976924178305  2.1342732986024107 -22.3091396627004279
  0.7301472077599719  3.1768238270089224 -25.0549513921886984
