Al Se Zr Se
 1.0000000000000000
     3.7862795191670231   -0.0000000000000000    0.0000000000000000
    -1.8931397595835115    3.2790142494273713    0.0000000000000000
    -0.0000000000000000    0.0000000000000000   42.0702356990227884
 Al  Se  Zr  Se 
   2   2   1   2
Cartesian
  2.0659337767336359  1.4493685505323874 16.1674793328362689
  2.0659337767336359  1.4493685505323874 18.7553318157724647
  0.1727940171501244  2.5423733003415112 15.0000000000000000
  0.1727940171501244  2.5423733003415112 19.9228111486087727
  0.0552649098036692  0.6562657995369066 25.4896303938907636
  1.9484046693871802  1.7492705493460301 27.0702356990227884
  0.0552649098036692  2.8422752991551539 23.9090250887586109
