Ga Se Pd Se
 1.0000000000000000
     3.7796466689603170   -0.0000000000000000    0.0000000000000000
    -1.8898233344801585    3.2732700326488673    0.0000000000000000
     0.0000000000000000    0.0000000000000000   41.4345202283844287
 Ga  Se  Pd  Se 
   2   2   1   2
Cartesian
  2.1222868112557598  1.4803662370557276 16.1770728543176254
  2.1222868112557598  1.4803662370557276 18.6526280641098126
  0.2324634767756013  2.5714562479386829 15.0000000000000000
  0.2324634767756013  2.5714562479386829 19.8297009184262052
 -0.0471618566226620  0.6858240043910770 25.1214617040530186
  1.8426614778574959  1.7769140152740328 26.4345202283844287
 -0.0471618566226620  2.8680040261569886 23.8084034204239430
