Hg Te Ba Cl
 1.0000000000000000
     4.7725549961636098    0.0000000000000000    0.0000000000000000
    -2.3862774980818049    4.1331538676360289    0.0000000000000000
     0.0000000000000000    0.0000000000000000   36.7437005295333918
 Hg  Te  Ba  Cl 
   1   1   1   2
Cartesian
  3.2024319274771589  1.5645106648855709 15.5127096401301845
  0.8161544293953547  2.9422286207642467 15.0000000000000036
  0.6011185882288950  0.5856323673440246 20.3591501298888886
  2.9873960863106985  1.9633503232227014 21.7437005295333989
  0.6011185882288950  3.3410682791013788 18.9745997302444209
