Sr Br I  Hg
 1.0000000000000000
     4.4221920796129002   -0.0000000000000011    0.0000000000000000
    -2.2110960385339111    3.8456295650488990    0.0000000000000000
     0.0000000000000034    0.0000000000000000   41.8244744564989190
 Sr  Br  I   Hg 
   1   2   2   2
Cartesian
 -0.5265397352196105  1.5604303938136281 16.8028165994893790
  1.6845563050110195  2.8423069154965939 18.6056331989787545
  1.6845563050110191  2.8423069154965939 15.0000000000000036
  1.2502453202146888 -0.4103269016363711 20.9002427110022495
  1.2599286644097212  4.6819489279194952 26.8244744564989190
  1.2684501322528707  2.1218560211385800 25.2043621357413272
  1.2470711232057747  2.1459319385317834 22.5209009662551018
