Tl Te Ca I 
 1.0000000000000000
     4.5299303460207980    0.0000000000000000    0.0000000000000000
    -2.2649651730103990    3.9230347570280433    0.0000000000000000
    -0.0000000000000000    0.0000000000000000   42.5148722891260178
 Tl  Te  Ca  I  
   2   2   1   2
Cartesian
  2.4891727012784761  1.8976421574572391 23.2310256054123911
  2.4891727012784761  1.8976421574572391 26.1312497413096452
  0.2242075282680774  3.2053204097999202 21.8474030183642967
  0.2242075282680774  3.2053204097999202 27.5148722891260107
 -0.0009393715847935  0.9604653526631005 16.7686769096983070
  2.2640258014256052  2.2681436050057817 18.5373538193965857
 -0.0009393715847936  3.5758218573484628 15.0000000000000000
