Mo Te Cd F 
 1.0000000000000000
     3.5297504694723654   -0.0000000000000000    0.0000000000000000
    -1.7648752347361805    3.0568535755831219    0.0000000000000000
     0.0000000000000002   -0.0000000000000000   39.5317827410493550
 Mo  Te  Cd  F  
   1   2   1   2
Cartesian
 -0.5432859432242776  1.3589375168257676 16.8051000000000030
  1.2215892915119055  2.3778887086868084 18.6102000000000025
  1.2215892915119055  2.3778887086868084 15.0000000000000036
  0.4735614412756712  0.9133200418953847 23.5146210590201790
  2.2384366760118528  1.9322712337564252 24.5317827410493550
  0.4735614412756698  2.9512224256174662 22.4974593769910314
