Ti Te Br Pt
 1.0000000000000000
     3.7464707862426776    0.0000194514724014    0.0000000000000000
    -1.8732185404969497    3.2445642616094412    0.0000000000000000
    -0.0000000000000002   -0.0000000000000000   41.3142717248413263
 Ti  Te  Br  Pt 
   1   2   2   2
Cartesian
 -0.3472442873216939  1.4756498567925642 16.7885301883608946
  1.5259967233411083  2.5571842449773126 18.5770603767261022
  1.5259967233411083  2.5571842449773126 15.0000000000000000
 -0.5256595532650417  2.0949779645162803 21.9794204523851100
  3.2206845091693967  2.0951389160000908 26.3142717248413263
  1.3473696676042874  1.0134754139232376 24.8717228086374469
  1.3474126049435580  3.1764870181069087 23.4209621967798789
