Ti Se Zr Br
 1.0000000000000000
     3.5287876270847196   -0.0000000000000000    0.0000000000000000
    -1.7643938135423598    3.0560197296155751    0.0000000000000000
     0.0000000000000000    0.0000000000000000   40.8859710332702520
 Ti  Se  Zr  Br 
   1   2   1   2
Cartesian
  0.2174043715696053  1.2470932796288703 16.6199398271809429
  1.9817981851119653  2.2657665228340620 18.2398796543619497
  1.9817981851119653  2.2657665228340620 14.9999999999999964
  0.3568127551495707  1.4213868285081612 24.0597786107838090
  2.1212065686919304  2.4400600717133529 25.8859710332702520
  2.1212065686919304  2.4400600717133529 22.2335861802430017
