Hf S  Pd Se
 1.0000000000000000
     3.6935195960211171   -0.0000000000000000    0.0000000000000000
    -1.8467597980105586    3.1986817995299246    0.0000000000000000
    -0.0000000000000000    0.0000000000000000   38.8418170711948392
 Hf  S   Pd  Se 
   1   2   1   2
Cartesian
  0.5821456998053312  0.6450987985441256 16.4481043019908562
  2.4289054978158893  1.7113260650541002 17.8962086039820498
  0.5821456998053312  2.7775533315640755 15.0000000000000000
  0.5736814338526091  0.8213532003766625 22.5287585468634290
  2.4204412318631672  1.8875804668866376 23.8418170711948392
  0.5736814338526091  2.9538077333966126 21.2157002632343499
