Al Te Mg I 
 1.0000000000000000
     4.1613378118949900   -0.0000000000000000    0.0000000000000000
    -2.0806689059474950    3.6038242588298139    0.0000000000000000
     0.0000000000000000    0.0000000000000000   42.4620836332025888
 Al  Te  Mg  I  
   2   2   1   2
Cartesian
  2.2697396434399320  1.5660376509350298 16.2795918494368621
  2.2697396434399320  1.5660376509350298 18.8534102305006570
  0.1890707374924369  2.7673124038783010 15.0000000000000000
  0.1890707374924368  2.7673124038783010 20.1330020799375902
  0.0580267037120552  0.7379679478990623 25.7877659765347289
  2.1386956096595489  1.9392427008423345 27.4620836332025959
  0.0580267037120551  3.1405174537856064 24.1134483198668619
