I  Pt Cd Br
 1.0000000000000000
     4.0123907382933517    0.0000237985287992    0.0000000000000000
    -2.0061747504427290    3.4748651126101979    0.0000000000000000
    -0.0000000000000002   -0.0000000000000000   39.7460642805516002
 I   Pt  Cd  Br 
   2   2   1   2
Cartesian
 -0.5730754400856333  2.0700946090808312 20.3495773031177194
  3.4391594208856247  2.0702915741320815 24.7460642805516073
  1.4328829849027565  0.9118322214302046 23.2571725865918424
  1.4329305334480937  3.2283812635873348 21.8376614221117222
  0.6542601007632967  0.1184578822438324 16.5666078507159362
  2.6604623428112886  1.2767621187997642 18.1332157014318867
  0.6542738465659282  2.4350425568268967 14.9999999999999982
