Ge Br Ge Br Hg
 1.0000000000000000
     4.2132504097426065   -0.0495792812113754    0.0000000000000001
    -2.0619158093720209    3.6808960106479569    0.0000000000000001
     0.0000000000000059   -0.0000000000000000   42.6318221872551675
 Ge  Br  Ge  Br  Hg 
   1   1   1   3   2
Cartesian
  2.0455257865563778  3.0122725806658073 24.6024734970893029
 -0.0810893756842988  1.8159079788620209 27.6318221872551675
 -0.0765822246841266  1.8182011395949664 25.2816974981841014
 -2.1677664441322606  3.0591766357917258 22.2523312777124396
  3.0781423709941849 -2.1449556820219637 15.0000000000000000
  3.1469313929259295  2.7071760477729905 20.7696522731609790
  3.1222592785251724  0.2671418151893112 19.2178916173209373
  3.1033708365017105  0.2947504305093287 16.5512692941072110
