Br Pt Mg Br
 1.0000000000000000
     3.8198475694684930    0.0000194514724014    0.0000000000000000
    -1.9099069321098578    3.3081104199309816    0.0000000000000000
    -0.0000000000000002   -0.0000000000000000   40.4815722426277489
 Br  Pt  Mg  Br 
   2   2   1   2
Cartesian
 -0.7017447831516359  2.1397565410319368 15.0000000000000018
  3.1179735805356179  2.1399202638576780 19.3348512724562198
  1.2079689013500878  1.0370721802720801 17.8923023562523369
  1.2080124596001032  3.2424471512263682 16.4415417443947689
  0.6713378789002448  0.3814932198772051 23.9745465942119864
  2.5812672811759527  1.4842096608358011 25.4815722426277489
  0.6713491139831704  2.5869066503219957 22.4675209457962239
