Cr S  Zn F 
 1.0000000000000000
     3.0962013211717800    0.0000000000000000    0.0000000000000000
    -1.5481006605858902    2.6813889993657036    0.0000000000000000
     0.0000000000000000    0.0000000000000000   38.8845609881026135
 Cr  S   Zn  F  
   1   2   1   2
Cartesian
 -0.5440453408815312  1.2199256799795446 16.4740845698072640
  1.0040553197043585  2.1137220131014458 17.9481691396145280
  1.0040553197043585  2.1137220131014458 15.0000000000000000
  0.5471935139495706  0.8031245923065846 22.8887940837581283
  2.0952941745354599  1.6969209254284854 23.8845609881026135
  0.5471935139495707  2.5907172585503866 21.8930271794136253
