Te Zn Mg I 
 1.0000000000000000
     4.2683578067901600   -0.0000000000000000    0.0000000000000000
    -2.1341789021585846    3.6970318271000733    0.0000000000000000
    -0.0000000000000000    0.0000000000000000   41.0737113318508378
 Te  Zn  Mg  I  
   2   2   1   2
Cartesian
  1.2252784041895119  0.7081950571163967 15.0000000000000000
  1.2253840621932133  3.1726077196941889 18.7597473661473551
  1.2251460469806994  0.7082803380668117 17.8109584950062683
  1.2255161918226696  3.1725220797750833 15.9491402070049286
  0.8751284622221356  0.3095823647225168 24.3993936751829743
  3.0093073660293790  1.5419263070892089 26.0737113318508378
  0.8751284630464657  2.7742702494559008 22.7250760185151073
