Bi O  Pt Te
 1.0000000000000000
     3.9960723064811199    0.0000000000000000    0.0000000000000000
    -1.9980361532405599    3.4607001327721245    0.0000000000000000
     0.0000000000000000    0.0000000000000000   40.1315577034601603
 Bi  O   Pt  Te 
   2   2   1   2
Cartesian
  2.2119224727485869  1.2608487890135038 15.1279491455499375
  2.2119224727485869  1.2608487890135038 18.2805653489927167
  0.2138863195080267  2.4144154999375451 15.0000000000000000
  0.2138863195080267  2.4144154999375451 18.4085143927414876
  0.8457766608522130  0.1518240115971426 23.7443434739066532
  2.8438128140927725  1.3053907225211843 25.1315577034601603
  0.8457766608522130  2.4589574334452253 22.3571292453096255
