Cl Pd Ni Se
 1.0000000000000000
     3.6050437470405008   -0.0000057074165551    0.0000000000000000
    -1.8025268170249513    3.1220334203482905    0.0000000000000000
    -0.0000000000000001    0.0000000000000000   39.8150473809214418
 Cl  Pd  Ni  Se 
   2   2   1   2
Cartesian
 -0.6238352891454577  1.8183675282455587 15.0000000000000000
  2.9812595665967185  1.8182748976294549 19.0602727285529099
  1.1784730298402621  0.7774768826764110 17.7820690337428502
  1.1784657595379133  2.8588554403742092 16.2762156910758300
  0.7321480898251287  0.2706004760810534 23.5697064369046352
  2.5346683155104786  1.3112744779194465 24.8150473809214418
  0.7321447941553280  2.3519541871743948 22.3243654934264768
