Pb S  Sn Se
 1.0000000000000000
     3.8564203782743753    0.0000000000000000    0.0000000000000000
    -1.9282101891371877    3.3397580152576039    0.0000000000000000
     0.0000000000000000    0.0000000000000000  -39.6419514561558373
 Pb  S   Sn  Se 
   1   2   1   2
Cartesian
  0.6992530637092291  0.9018914032131498 -23.0999610981182002
  2.6274632528464172  2.0151440749656846 -21.5579707400805702
  0.6992530637092291  3.1283967467182192 -24.6419514561558373
  0.7512969398635736  0.8407038169053762 -16.5929310195742019
  2.6795071290007608  1.9539564886579108 -14.9999999999999964
  0.7512969398635736  3.0672091604104454 -18.1858620391484678
