In Se In Se
 1.0000000000000000
     4.0794759707022132   -0.0000000000000000    0.0000000000000000
    -2.0397379853511066    3.5329298247562986    0.0000000000000000
     0.0000000000000000    0.0000000000000000   44.1263146642258945
 In  Se  In  Se 
   1   2   3   2
Cartesian
 -0.2752817318224364  3.0492514128749888 19.0853122328591098
  1.7644645605949933  1.8712489467714153 15.0000000000000000
 -0.2754345843561379  0.6937469634296686 20.3557279819780419
 -0.2754262801869825  3.0494643045991237 16.2704079646881148
  2.1414750076460725  1.5840506935567611 25.0355387270972614
  2.1414750076460725  1.5840506935567611 27.8497844404835249
  0.1017370222949666  2.7616939684755275 23.7590084809571351
  0.1017370222949666  2.7616939684755275 29.1263146642259017
