Pb Br S  Cd
 1.0000000000000000
     4.3116873177673609   -0.0000000000000000    0.0000000000000000
    -2.1558436576511402    3.7354965144589003    0.0000000000000000
     0.0000000000000000    0.0000000000000000   40.4765874190233461
 Pb  Br  S   Cd 
   1   2   2   2
Cartesian
 -0.7275882910121798  1.6767278079307455 16.8414801415537845
  1.4282553682823473  2.9218933127503783 18.6829602831084465
  1.4282553682823473  2.9218933127503783 15.0000000000000000
  1.1819589837507527  0.7457028361998748 22.2391790151759920
  1.1822783018898622  3.2348015015501859 25.4765874190233461
  1.1815870237544206  0.7457732683732092 25.0525288607386649
  1.1826504883338700  3.2347310919009860 22.6631299078355610
