Hf Cl Sn O 
 1.0000000000000000
     3.2844438433539733    0.0000000000000000    0.0000000000000000
    -1.6422219216769867    2.8444118056479382    0.0000000000000000
     0.0000000000000000    0.0000000000000000   39.3645246694976763
 Hf  Cl  Sn  O  
   1   2   1   2
Cartesian
 -0.5686577713686357  1.1905409063661927 16.7299570918342546
  1.0735641503083511  2.1386781749155053 18.4599141836685092
  1.0735641503083511  2.1386781749155053 15.0000000000000000
  0.4053138732116036  0.9120077824638225 23.3555623448252625
  2.0475357948885904  1.8601450510131352 24.3645246694976763
  0.4053138732116036  2.8082823195624478 22.3466000201528487
