Cl Cd Se Ti
 1.0000000000000000
     3.9868838401279225    0.0012519794577290    0.0000000000000000
    -1.9923487368066417    3.4606625051403328    0.0000000000000000
     0.0000000000000033    0.0000000000000000   41.9702029400999663
 Cl  Cd  Se  Ti 
   2   2   2   2
Cartesian
  1.2447095144342974 -0.2081492414514069 15.0000000000000000
  1.2572324057804718  4.3832882320622479 20.5111542448488713
  1.2575423272617081  2.0762785243752977 19.0920396605243425
  1.2444583135600531  2.0988587412617927 16.4189511839095843
  1.2166759506251137  0.9074623179374421 23.4108714822326860
  1.2175112515694673  3.2144041028814119 26.9702029400999663
  1.2164840917737545  0.9075293922127300 26.0441896183013419
  1.2177031910951446  3.2143370551124812 24.3369561056474453
