Sn Se Cd Cl
 1.0000000000000000
     3.9032044800460222   -0.0000000000000000    0.0000000000000000
    -1.9516022400230111    3.3802742358850857    0.0000000000000000
     0.0000000000000000    0.0000000000000000   38.0103994879871721
 Sn  Se  Cd  Cl 
   1   1   1   2
Cartesian
  2.1482959125220029  1.5878747386180128 16.5586206887278244
  0.1966936724989924  2.7146328172463745 15.0000000000000036
  0.5850919970379833  0.2097020211372967 21.5725280713748759
  2.5366942370609937  1.3364600997656590 23.0103994879871721
  0.5850919970379835  2.4632181783940212 20.1346566547626011
