S  Ir Zr O 
 1.0000000000000000
     3.2740618134332866    0.0000000000000000    0.0000000000000000
    -1.6370309057800472    2.8357390656688715    0.0000000000000000
    -0.0000000000000000    0.0000000000000000   40.4841673901919350
 S   Ir  Zr  O  
   2   2   1   2
Cartesian
  1.0301176166681671  0.6554768726166758 15.0000000000000000
  1.0299697504009584  2.5461124830073376 19.6502937780201528
  1.0299274809393044  0.6558247894634202 18.3976254675456090
  1.0301601310846233  2.5457643010786670 16.2526844590143256
  0.5984742059675459 -0.0616668115884470 24.5228354177603620
  2.2355051129963877  0.8835795436345100 25.4841673901919421
  0.5984742065919433  1.8288258988574668 23.5615034453287819
