Ti H  Ni O 
 1.0000000000000000
     2.8148603280777351    0.0000000000000000    0.0000000000000000
    -1.4074301640388676    2.4377405522203173    0.0000000000000000
    -0.0000000000000000    0.0000000000000000   38.1155141012521526
 Ti  H   Ni  O  
   1   2   1   2
Cartesian
 -0.5190327457432903  1.1394332769561069 16.1343963302347575
  0.8883974160860247  1.9520134642090277 17.2687926809326058
  0.8883974160860247  1.9520134642090277 15.0000000000000000
  0.4239582543180906  0.7765852097362489 22.1661034475110448
  1.8313884183569582  1.5891653938096879 23.1155141012521526
  0.4239582543180904  2.4017455778831271 21.2166927937699370
