Ca Br Ge Cl
 1.0000000000000000
     4.1756417757012700   -0.0000000000000002    0.0000000000000000
    -2.0878208878506350    3.6162118548619411    0.0000000000000000
     0.0000000000000010    0.0000000000000017   42.0354501481023064
 Ca  Br  Ge  Cl 
   1   2   2   2
Cartesian
 -0.3196351653642490  1.4833009610116459 16.7571598031843862
  1.7681857224863864  2.6887049126322928 18.5143196063686446
  1.7681857224863855  2.6887049126322928 15.0000000000000000
  1.2003926041328556  0.7806470102239009 24.1735985218604199
  1.2003926077800249  3.1914549134651971 24.8454365237738983
  1.2003926041328556  0.7806470102239005 21.9835848903049147
  1.2003926077800249  3.1914549134651971 27.0354501481023135
