W  Te In O 
 1.0000000000000000
     3.4951785173089340    0.0000000000000000    0.0000000000000000
    -1.7475892586544670    3.0269133867511648    0.0000000000000000
     0.0000000000000000    0.0000000000000000   41.8526525623370418
 W   Te  In  O  
   1   2   2   2
Cartesian
 -0.5683180938545735  1.4563164451439894 16.8119622132334641
  1.1792711647998937  2.4652875740610445 18.6239244264669281
  1.1792711647998937  2.4652875740610445 14.9999999999999964
  2.0373920068195019  1.3836224072709880 23.2117177426834260
  2.0373920068195019  1.3836224072709880 26.0619829403047021
  0.2898027481650348  2.3925935361880426 22.4210481176642205
  0.2898027481650348  2.3925935361880426 26.8526525623370418
