Ga Te Tl Se
 1.0000000000000000
     4.1764307648763346    0.0000000000000000    0.0000000000000000
    -2.0882153824381673    3.6168951395297788    0.0000000000000000
     0.0000000000000000    0.0000000000000000   44.4845299762390312
 Ga  Te  Tl  Se 
   2   2   2   2
Cartesian
  2.2856309862902497  1.3856071882386471 16.2730454743835011
  2.2856309862902497  1.3856071882386471 18.7468688976248288
  0.1974156038520836  2.5912389014152395 15.0000000000000000
  0.1974156038520836  2.5912389014152395 20.0199143598030744
  2.3704903187524735  1.5632180224368384 25.3035311096334112
  2.3704903187524735  1.5632180224368384 28.1966998937962927
  0.2822749363143059  2.7688497356134310 24.0157010681946659
  0.2822749363143059  2.7688497356134310 29.4845299762390312
