Ge Te Cd Cl
 1.0000000000000000
     3.9215266444451791   -0.0000000000000000    0.0000000000000000
    -1.9607633222225895    3.3961416957070663    0.0000000000000000
     0.0000000000000000    0.0000000000000000   38.0175867868118758
 Ge  Te  Cd  Cl 
   1   1   1   2
Cartesian
  2.1607215726716715  1.2867227436646107 16.5598212339094282
  0.1999582504490826  2.4187699755669660 15.0000000000000000
  0.6937741718231583  0.0290663606059260 21.5797153701995867
  2.6545374940457469  1.1611135925082816 23.0175867868118793
  0.6937741718231585  2.2931608244106370 20.1418439535873119
