I  Ag Tl Te Tl
 1.0000000000000000
     4.5473761673390261    0.0000000000000000    0.0000000000000000
    -2.2736880823628578    3.9405734871444178    0.0000000000000000
     0.0000000000000000    0.0000000000000000   43.2172333467595777
 I   Ag  Tl  Te  Tl 
   2   2   1   2   1
Cartesian
  1.1783766481402029  0.3095674100051813 15.0000000000000000
  1.1781170236677436  2.9352370747684882 19.1467191956345957
  1.1766500486417946  0.3105430196107772 17.9021344705961027
  1.1798588839903652  2.9342547213645749 16.2436090111161739
  0.8091694204685023  3.3952086211875536 26.8381381345286627
  3.0827382679353583  2.0811207557335729 22.5590912262573653
  0.8087999871229063  0.7677609172408015 28.2172333467595777
  0.8086777757234440  3.3957743721211218 23.9381817350899837
