Hf Te Si F 
 1.0000000000000000
     3.9268170671168656    0.0000000000000000    0.0000000000000000
    -1.9634085335560560    3.4007233361363829    0.0000000000000000
     0.0000000000000013    0.0000000000000022   41.2553232698002716
 Hf  Te  Si  F  
   1   2   2   2
Cartesian
 -0.6118956897899845  1.4211815739081466 16.8494380278571079
  1.3515128437692403  2.5547560192869412 18.6988761198817670
  1.3515128437692401  2.5547560192869412 15.0000000000000000
  1.1262008534142618  0.7614775098022206 23.9090671739393699
  1.1262008514626589  3.0286264005598085 24.6128942343596968
  1.1262008534142618  0.7614775098022202 22.2666381384998182
  1.1262008514626589  3.0286264005598094 26.2553232698002645
