Hf Br Ni Se
 1.0000000000000000
     3.5209686256174315    0.0000000000000000    0.0000000000000000
    -1.7604843128087158    3.0492482757126753    0.0000000000000000
     0.0000000000000000    0.0000000000000000   40.0561094618646365
 Hf  Br  Ni  Se 
   1   2   1   2
Cartesian
 -0.6032381308707641  1.2758804966238020 16.8486980501143790
  1.1572461819379516  2.2922965885280271 18.6973960898101055
  1.1572461819379516  2.2922965885280271 15.0000000000000018
  0.4184069697333774  0.9570627705017019 23.8107685178478263
  2.1788912825420930  1.9734788624059270 25.0561094618646365
  0.4184069697333773  2.9898949543101523 22.5654275743696715
