Ca Cl Pt Te
 1.0000000000000000
     4.0767241368627580   -0.0000000000000000    0.0000000000000000
    -2.0383620684313795    3.5305466667443373    0.0000000000000000
     0.0000000000000000    0.0000000000000000   38.8437026732759136
 Ca  Cl  Pt  Te 
   1   2   1   2
Cartesian
  0.6125288938953826  0.7952188128091302 16.4021708164290665
  2.6508909623267609  1.9720677017239088 17.8043416328581401
  0.6125288938953823  3.1489165906386871 15.0000000000000000
  0.6134874681797877  0.7069260253826309 22.4564884437224066
  2.6518495366111665  1.8837749142974101 23.8437026732759136
  0.6134874681797875  3.0606238032121889 21.0692742151253753
