Sn O  In O 
 1.0000000000000000
     3.3914496594779679   -0.0000000000000000    0.0000000000000000
    -1.6957248297389840    2.9370815607640033    0.0000000000000000
     0.0000000000000000    0.0000000000000000  -39.1782006519554784
 Sn  O   In  O  
   1   1   2   2
Cartesian
  1.5980044167314940  1.6938247247206655 -23.1668070333373421
 -0.0977204130074903  2.6728519116419998 -24.1782006519554820
  1.9592788642311145  1.2338098114171736 -18.6409348196536229
  1.9592788642311145  1.2338098114171736 -15.7906696220323450
  0.2635540344921307  2.2128369983385081 -19.4316044446728284
  0.2635540344921307  2.2128369983385081 -15.0000000000000071
