Se Cd I  In
 1.0000000000000000
     4.4656819428291925   -0.0000000000000000    0.0000000000000000
    -2.2328409688637283    3.8700811644505460    0.0000000000000000
     0.0000000000000000    0.0000000000000000   43.2412638242093905
 Se  Cd  I   In 
   2   2   2   2
Cartesian
  1.3338676303555403  0.9416129608996975 14.9999999999999982
  1.3342257726458182  3.5207195344145523 18.5885916162562381
  1.3334673259878489  0.9418192797853493 17.8903171033845112
  1.3346280342624866  3.5205126234662059 15.6980628372997106
  1.3001357846241532  1.0145810429696847 21.8887992513297505
  1.3001963186367731  3.5940729241841671 28.2412638242093834
  1.2994035964890935  1.0150220050863412 26.3825894247430455
  1.3009286413451036  3.5936324197526730 23.7482822525299824
