Pd Se Zn Cl
 1.0000000000000000
     3.6668662772442038    0.0000000000000000    0.0000000000000000
    -1.8334331386221021    3.1755993483739529    0.0000000000000000
     0.0000000000000000    0.0000000000000000   38.7622490865111118
 Pd  Se  Zn  Cl 
   1   2   1   2
Cartesian
  0.5170096412283631  0.6405095905143603 16.3130582836290756
  2.3504427798504648  1.6990427066390112 17.6261168079604857
  0.5170096412283629  2.7575758227636622 15.0000000000000000
  0.5686333504833732  0.7025322502723268 22.3947820979289958
  2.4020664891054744  1.7610653663969773 23.7622490865111118
  0.5686333504833732  2.8195984825216276 21.0273151093468584
