Ga Se Ru Br
 1.0000000000000000
     3.8024181229513547   -0.0000000000000000    0.0000000000000000
    -1.9012090614756776    3.2929906902862141    0.0000000000000000
     0.0000000000000000    0.0000000000000000   41.4430134823939795
 Ga  Se  Ru  Br 
   2   2   1   2
Cartesian
  2.1338346302790825  1.4868492722478914 16.1770728543176290
  2.1338346302790825  1.4868492722478914 18.6526280641098126
  0.2326255688034053  2.5845128356766294 15.0000000000000000
  0.2326255688034053  2.5845128356766294 19.8297009184262052
 -0.0452640958198135  0.6891732536461618 25.1261643284443750
  1.8559449656558633  1.7868368170749001 26.4430134823939795
 -0.0452640958198136  2.8845003805036384 23.8093151744947704
