Ge Se Zn Br
 1.0000000000000000
     3.7321615098984320    0.0000000000000000    0.0000000000000000
    -1.8660807549492162    3.2321466785985296    0.0000000000000000
     0.0000000000000000    0.0000000000000000  -37.9299242595308144
 Ge  Se  Zn  Br 
   1   1   1   2
Cartesian
  2.2762023988673903  1.6124341668358333 -21.4825645258172031
  0.4101216439181746  2.6898163930353434 -22.9299242595308144
  0.5412462309665502  0.2443965296756178 -16.4825986053316242
  2.4073269859157649  1.3217787558751275 -15.0000000000000036
  0.5412462309665504  2.3991609820746369 -17.9651972106632272
