Hg I  Pb Cl
 1.0000000000000000
     4.3897852438844076    0.0000000000000000    0.0000000000000000
    -2.1948926219422042    3.8016655383619646    0.0000000000000000
     0.0000000000000000    0.0000000000000000   39.5151407057651625
 Hg  I   Pb  Cl 
   1   2   1   2
Cartesian
  0.6442593833659934  0.9053321571456979 16.7432505159098142
  2.8391520053081978  2.1725540032663528 18.4865010318196283
  0.6442593833659933  3.4397758493870079 15.0000000000000000
  0.6633678015037088  1.0354562425813785 23.0264086475453595
  2.8582604234459117  2.3026780887020331 24.5151407057651625
  0.6633678015037084  3.5698999348226872 21.5376765893255993
