Hf O  Sn O 
 1.0000000000000000
     3.2369680635918101    0.0000000000000000    0.0000000000000000
    -1.6184840317959051    2.8032965743094298    0.0000000000000000
     0.0000000000000000    0.0000000000000000   37.5950732438706012
 Hf  O   Sn  O  
   1   2   1   2
Cartesian
  0.4335624561789128  0.7137428126652815 15.9724295917334587
  2.0520464879748181  1.6481750041017580 16.9448591834669173
  0.4335624561789128  2.5826071955382348 15.0000000000000000
  0.5693568837158580  0.5613621657357124 21.5861109191981875
  2.1878409155117633  1.4957943571721890 22.5950732438706012
  0.5693568837158580  2.4302265486086654 20.5771485945257737
