S  Zr Hg Br
 1.0000000000000000
     4.1692801528378975    0.0000000000000000    0.0000000000000000
    -2.0846400752207304    3.6112042618927038    0.0000000000000000
    -0.0000000000000000    0.0000000000000000   40.3699795108610857
 S   Zr  Hg  Br 
   2   2   1   2
Cartesian
  1.2350923084413084  0.7777567877206811 14.9999999999999982
  1.2353757299070192  3.1847730944862001 18.3278617161116202
  1.2351620837851862  0.7776747757287179 17.6238086027417182
  1.2353059436378666  3.1848551094225019 15.7040911197024666
  0.6977176749917935 -0.1104283454461528 23.7805719347302826
  2.7823577518101468  1.0933064085180817 25.3699795108610857
  0.6977176757906054  2.2970411624823162 22.1911643585994867
