I  Cd Ge Cl
 1.0000000000000000
     4.3166668108610411    0.0008383076656585    0.0000000000000000
    -2.1576014257135721    3.7455981902336921    0.0000000000000000
     0.0000000000000044    0.0000000000000017   43.1680451960993921
 I   Cd  Ge  Cl 
   2   2   2   2
Cartesian
  1.2704685737505215 -0.2778644187487564 14.9999999999999982
  1.2818971502353549  4.6852602942824335 20.9102076548876994
  1.2870134383346157  2.1905630744825859 19.2986420562647361
  1.2683945083309478  2.2146707225100228 16.6116177631989359
  1.3299701763273077  0.9952081267444862 25.3061935698574949
  1.3304581665756192  3.4925530227895676 25.9780315717709698
  1.3299701763273075  0.9952081267444858 23.1161799383019932
  1.3304581665756194  3.4925530227895676 28.1680451960993921
