Ge Se Sn S 
 1.0000000000000000
     3.7091287078203532    0.0000000000000000    0.0000000000000000
    -1.8545643539101766    3.2121996868785740    0.0000000000000000
    -0.0000000000000000    0.0000000000000000   36.2611740095613655
 Ge  Se  Sn  S  
   1   1   1   1
Cartesian
  1.9729650516293200  0.9778436660270825 16.4473597337136113
  0.1184006977191436  2.0485768949866072 15.0000000000000000
  2.1507082765196652  1.2982872618843240 21.2611740095613655
  0.2961439226094886  2.3690204908438481 19.8013268478275535
