S  Cd S  Hf
 1.0000000000000000
     4.2317399754304628   -0.0000000000000000    0.0000000000000000
    -2.1158699852979943    3.6667927148214656    0.0000000000000000
     0.0000000000000000    0.0000000000000000   40.1279600336103357
 S   Cd  S   Hf 
   2   2   2   2
Cartesian
  1.2004597628371909  1.0268672455460708 15.0000000000000000
  1.2007731609813279  3.4701860432616232 18.2374084038473541
  1.2000946997262472  1.0269363823205457 17.8133498455626729
  1.2011384463411527  3.4701169285970153 15.4239508926595690
  1.5017760398821989  1.0072267056790976 21.8024733870279626
  1.5021067680411448  3.4512293764301956 25.1279600336103357
  1.5019056087932792  1.0070997125580543 24.4070545223262449
  1.5019771889893965  3.4513563748563860 22.5234697324720159
