Ti Se F  Pt
 1.0000000000000000
     3.4436536395482831    0.0000585085648160    0.0000000000000000
    -1.7217760884834035    2.9824465737803996    0.0000000000000000
    -0.0000000000000013   -0.0000000000000000   40.4934754988756396
 Ti  Se  F   Pt 
   1   2   2   2
Cartesian
 -0.3395460086841993  1.2976434530017984 16.6199398271809429
  1.3822977215201884  2.2918313166384756 18.2398796543619497
  1.3822977215201886  2.2918313166384756 14.9999999999999964
 -0.5075983493498958  1.6138433151429936 21.7001698426470426
  2.9358253888185635  1.6145585856404361 25.4934754988756396
  1.2140565025108843  0.6200910230501953 24.3545864652226314
  1.2141929912952154  2.6082338642608467 22.8390952120991244
