Ca Br S  Hf
 1.0000000000000000
     4.1334133513713169    0.0000000000000000    0.0000000000000000
    -2.0667066745009612    3.5801735964207042    0.0000000000000000
    -0.0000000000000000    0.0000000000000000   40.2801106327435789
 Ca  Br  S   Hf 
   1   2   2   2
Cartesian
 -0.6721992294719954  1.5815428804417260 16.7571598031843862
  1.3945074466085621  2.7749340792486268 18.5143196063686446
  1.3945074466085621  2.7749340792486268 15.0000000000000000
  1.1577257963814964  0.7488024555869328 21.9546239861612023
  1.1580488391198909  3.1350714682957124 25.2801106327435789
  1.1578523546932697  0.7486784623715410 24.5592051214594882
  1.1579222709030728  3.1351954666909299 22.6756203316052591
