Cd F  Ni Se
 1.0000000000000000
     3.5269281534981207   -0.0000000000000000    0.0000000000000000
    -1.7634640767490581    3.0544093782519197    0.0000000000000000
     0.0000000000000002   -0.0000000000000000   38.0369559942767168
 Cd  F   Ni  Se 
   1   2   1   2
Cartesian
  0.4832870309991470  0.6886141308311897 16.0171616820291476
  2.2467511077482061  1.7067505902484963 17.0343233640583236
  0.4832870309991456  2.7248870496658033 15.0000000000000000
  0.6826595660232423  0.7761721534394000 21.7916150502599066
  2.4461236427723030  1.7943086128567063 23.0369559942767168
  0.6826595660232436  2.8124450722740129 20.5462741067817518
