Pd Se Ru Cl
 1.0000000000000000
     3.6640133163520936   -0.0000000000000000    0.0000000000000000
    -1.8320066581760468    3.1731286117653816    0.0000000000000000
     0.0000000000000000    0.0000000000000000   38.3349247515658291
 Pd  Se  Ru  Cl 
   1   2   1   2
Cartesian
  0.6917645660613786  0.7641153666919646 16.3130582836290792
  2.5237712242374246  1.8218249039470920 17.6261168079604893
  0.6917645660613786  2.8795344412022192 15.0000000000000018
  0.6479441768455951  1.0827799707593759 22.1075486019502350
  2.4799508350216435  2.1404895080145030 23.3349247515658291
  0.6479441768455967  3.1981990452696301 20.8801724628531993
