I  Cd I  Hg
 1.0000000000000000
     4.4282203044486348    0.0008383076656576    0.0000000000000000
    -2.2133781712348295    3.8581052332501646    0.0000000000000000
     0.0000000000000069    0.0000000000000000   43.3356712826639807
 I   Cd  I   Hg 
   2   2   2   2
Cartesian
  1.3289788616773197 -0.3358820767029338 14.9999999999999982
  1.3406777207350129  4.7763039475243350 20.9102076548876994
  1.3459388231290834  2.2066815194087748 19.2986420562647361
  1.3268386115448114  2.2315133197439279 16.6116177631989359
  1.3318609232887737 -0.3061839484528102 22.4114395371673041
  1.3425267347862193  4.8031686818479145 28.3356712826639736
  1.3505725290834083  2.2344931152885663 26.7155589619063818
  1.3291689593167302  2.2586457091169247 24.0320977924201564
