Zr Te Hg F 
 1.0000000000000000
     3.7039094169457254   -0.0000000000000000    0.0000000000000000
    -1.8519547084728609    3.2076796483914043    0.0000000000000000
     0.0000000000000002    0.0000000000000000   41.8575368142162958
 Zr  Te  Hg  F  
   2   2   1   2
Cartesian
  2.2065852004610829  1.4720920141527458 22.3604521970552241
  2.2065852004610829  1.4720920141527458 25.0393432119980517
  0.3546304919882212  2.5413185636165472 20.5422587603054012
  0.3546304919882213  2.5413185636165472 26.8575368142162958
  0.1986196736943510  0.4808016467126959 16.0286721523601869
  2.0505743821672038  1.5500281961764972 17.0573443047204023
  0.1986196736943492  2.6192547456402986 15.0000000000000000
