Ti Te Pd S 
 1.0000000000000000
     3.5807940020330422    0.0000000000000000    0.0000000000000000
    -1.7903970010165211    3.1010585714795615    0.0000000000000000
    -0.0000000000000000    0.0000000000000000  -41.8136844790342153
 Ti  Te  Pd  S  
   2   2   1   2
Cartesian
  2.0736324240026249  1.4158859069287875 -19.0942779024546567
  2.0736324240026249  1.4158859069287875 -16.7151615237054045
  0.2832354229861038  2.4495720974219743 -20.8094364375122609
  0.2832354229861038  2.4495720974219743 -14.9999999999999964
  0.1928519043496222  0.5408834257224344 -25.5686126456296847
  1.9832489053661431  1.5745696162156217 -24.3235408122251542
  0.1928519043496222  2.6082558067088093 -26.8136844790342153
