Hf I  Sn Se
 1.0000000000000000
     3.8189980631020957   -0.0000000000000000    0.0000000000000000
    -1.9094990315510478    3.3073493396499813    0.0000000000000000
     0.0000000000000000    0.0000000000000000   40.8525849422365610
 Hf  I   Sn  Se 
   1   2   1   2
Cartesian
 -0.3498434694523416  1.2658473357621032 16.9476853944779791
  1.5596555620987060  2.3682971156454298 18.8953707810581477
  1.5596555620987060  2.3682971156454298 15.0000000000000000
  0.4722505162915550  0.9324576775150657 24.2596539226623555
  2.3817495478426030  2.0349074573983925 25.8525849422365610
  0.4722505162915550  3.1373572372817193 22.6667229030880897
