Ca I  Cd
 1.0000000000000000
     4.3932866493348257    0.0008383076656587    0.0000000000000000
    -2.1959113449504644    3.8119529167847719    0.0000000000000000
     0.0000000000000032    0.0000000000000000   42.0634104243480493
 Ca  I   Cd 
   1   4   2
Cartesian
 -0.2556982634786102  1.6469485442035812 16.9490723290323366
  1.9411890544277857  2.9181583882422775 18.8981446580646484
  1.9411890544277852  2.9181583882422775 15.0000000000000000
  1.2909022349084365 -0.4096601244497434 21.1532027694603499
  1.3025164521762522  4.6413783962735851 27.0634104243480493
  1.3077322056750489  2.1024915721940842 25.4518448257250895
  1.2887827103398266  2.1270263128467604 22.7648205326592894
