I  Zn I 
 1.0000000000000000
     4.1457564461320455    0.0000000000000035    0.0000000000000000
    -2.0714922546034020    3.5911298856541789    0.0000000000000000
     0.0000000000000013    0.0000000000000023   42.5086789496967583
 I   Zn  I  
   2   3   2
Cartesian
  0.6268660309292819  0.8031620163716200 15.0000000000000000
  0.6166891174508269  3.1866970051680612 20.3033500334364945
  2.6885464480764965  1.9871158840385266 18.8373937388954857
  2.7011122454259291  2.0032553004493567 16.4658492361148348
  0.0144128666200216  0.9569164800421025 25.8812731811843726
  2.0877530791735848  2.1539597752601649 27.5086789496967583
  0.0153368455951016  3.3510030704782228 24.2538674126719869
