Sn I  Te Zn
 1.0000000000000000
     4.3744444148742012   -0.0000000000000000    0.0000000000000000
    -2.1872222062006044    3.7889055247021726    0.0000000000000000
    -0.0000000000000000    0.0000000000000000   41.2575271199445268
 Sn  I   Te  Zn 
   1   2   2   2
Cartesian
 -0.2751692999260189  1.5124091871796432 17.0138547965808087
  1.9120529079232473  2.7753776954137002 19.0277095931616103
  1.9120529079232473  2.7753776954137002 15.0000000000000036
  1.4678247018142625  0.8364821675116341 22.4977797537971753
  1.4679329858423737  3.3621371223707057 26.2575271199445268
  1.4676890549732362  0.8365695677503365 25.3087382488034436
  1.4680683994477417  3.3620493542427030 23.4469199608020986
