I  Zn Hg Br
 1.0000000000000000
     4.1674267348370595    0.0000000000000035    0.0000000000000000
    -2.0823273989559095    3.6098969061800643    0.0000000000000000
     0.0000000000000013    0.0000000000000022   42.4351161064399776
 I   Zn  Hg  Br 
   2   2   1   2
Cartesian
  0.4541435235645157  0.7424213192694942 15.0000000000000000
  0.4439086058835980  3.1384125130719429 20.3033500334364945
  2.5265981645391569  1.9325624559140469 18.8373937388954857
  2.5392296120246378  1.9487862159071763 16.4658492361148348
 -0.1341818756330294  0.9437258165205403 25.8457085303091745
  1.9499934812730393  2.1470247852472308 27.4351161064399776
 -0.1332578966579496  3.3503237539739179 24.2563009541783785
