F  Pt Zr O 
 1.0000000000000000
     3.3304188970196993    0.0000585085648160    0.0000000000000000
    -1.6651587172191116    2.8843824101596560    0.0000000000000000
    -0.0000000000000012   -0.0000000000000000   39.0882668652518319
 F   Pt  Zr  O  
   2   2   1   2
Cartesian
 -0.5994635378785650  1.5365810693147293 15.0000000000000000
  2.7307330177807758  1.5372747452724673 18.7933056562285934
  1.0655790415525566  0.5755044337994915 17.6544166225755887
  1.0657121542970736  2.4982768995400888 16.1389253694520747
  0.5953525711582882 -0.1241414039532369 23.1269348928202554
  2.2605789300983834  0.8373584051431924 24.0882668652518319
  0.5953863920187803  1.7987997056748055 22.1656029203886753
