In O  Cd F 
 1.0000000000000000
     3.4761947198303078   -0.0000000000000000    0.0000000000000000
    -1.7380973599151517    3.0104729358743807    0.0000000000000000
     0.0000000000000002   -0.0000000000000000   40.4131263827560119
 In  O   Cd  F  
   2   2   1   2
Cartesian
  1.9427061097023626  1.3484961274085645 15.7906696250192056
  1.9427061097023626  1.3484961274085645 18.6409348226404816
  0.2046087497872097  2.3519871060333584 15.0000000000000000
  0.2046087497872097  2.3519871060333584 19.4316044446728213
 -0.1983028258511124  0.8565387049361559 24.3959647007268323
  1.5397945340640402  1.8600296835609493 25.4131263827560119
 -0.1983028258511138  2.8635206621857434 23.3788030186976883
