Hf Cl Si S 
 1.0000000000000000
     3.3270910305056658   -0.0000000000000001    0.0000000000000000
    -1.6633647744950071    2.8816422166542504    0.0000000000000000
     0.0000000000000012    0.0000000000000021   40.0864268412798097
 Hf  Cl  Si  S  
   1   2   1   2
Cartesian
 -0.4546107801913666  1.2600680251433785 16.7299570918342546
  1.2089949819807417  2.2206154306947954 18.4599141836685092
  1.2089949819807417  2.2206154306947949 15.0000000000000000
  2.6530754667350287  0.8599042321667947 23.7607467955584966
  0.9899211778778821  1.8207164621095602 22.4345248877854857
 -0.6739621690729732  2.7816422406796502 25.0864268412798168
