Si F  Bi O 
 1.0000000000000000
     3.9603138110826936    0.0000000000000000    0.0000000000000000
    -1.9801569055389701    3.4297323673548528    0.0000000000000000
     0.0000000000000013    0.0000000000000022   41.3679286112228723
 Si  F   Bi  O  
   2   2   2   2
Cartesian
  0.4102482176612875  0.7435003204115355 16.6424290354395517
  0.4102482156930233  3.0299885653147700 17.3462560958598786
  0.4102482176612875  0.7435003204115349 15.0000000000000000
  0.4102482156930233  3.0299885653147700 18.9886851313004499
  2.1757185456611192  1.4552424719075452 23.0873633640313258
  2.1757185456611192  1.4552424719075454 26.2399795674741085
  0.1955616401205643  2.5984865943591626 22.9594142184813883
  0.1955616401205644  2.5984865943591626 26.3679286112228795
