Br Pt Hf S 
 1.0000000000000000
     3.7041716800755675    0.0000194514724014    0.0000000000000000
    -1.8520689874133947    3.2079321611113487    0.0000000000000000
    -0.0000000000000002   -0.0000000000000000   40.6044602980111620
 Br  Pt  Hf  S  
   2   2   1   2
Cartesian
 -0.7318128944896505  1.6599332043642732 15.0000000000000000
  2.9722334925468505  1.6600925582680133 19.3348512724562163
  1.1200690376372062  0.5906412140829347 17.8923023562523369
  1.1201116170435121  2.7292318438132570 16.4415417443947689
  0.9061224771176131  0.1116539834589618 24.1563559960199683
  2.7582139346968599  1.1809776714776792 25.6044602980111620
  0.9061337122005393  2.2502819080239949 22.7082516940291121
