Sn Te Tl Se
 1.0000000000000000
     4.1977109978290130   -0.0000000000000000    0.0000000000000000
    -2.0988554989145065    3.6353243618652495    0.0000000000000000
    -0.0000000000000000    0.0000000000000000   40.6315612057139006
 Sn  Te  Tl  Se 
   1   1   2   2
Cartesian
  2.0441523307241978  1.8410899442360689 16.6861605505646438
 -0.0547031681903092  3.0528647315244850 15.0000000000000000
  2.3667495100526383  1.5024742799291562 21.4505623391082771
  2.3667495100526383  1.5024742799291562 24.3437311232711586
  0.2678940111381317  2.7142490672175721 20.1627322976695353
  0.2678940111381317  2.7142490672175721 25.6315612057139006
