Pd S  Zr S 
 1.0000000000000000
     3.6178332500594070    0.0000000000000000    0.0000000000000000
    -1.8089166250297035    3.1331355012074660    0.0000000000000000
    -0.0000000000000000    0.0000000000000000   38.8184929284576228
 Pd  S   Zr  S  
   1   2   1   2
Cartesian
  0.6134707317099450  0.7866379235316898 16.2450718334045305
  2.4223873567396486  1.8310164239341784 17.4901436668090611
  0.6134707317099450  2.8753949243366668 15.0000000000000018
  0.6194743016135844  0.7134976085800186 22.3726104857135617
  2.4283909266432877  1.7578761089825072 23.8184929284576228
  0.6194743016135842  2.8022546093849958 20.9267280429694331
