Ge Te I  Pt
 1.0000000000000000
     3.9530796219412681    0.0000237985287992    0.0000000000000000
    -1.9765191922666872    3.4235001791224748    0.0000000000000000
     0.0000000000000002    0.0000000000000000  -38.4541160129970123
 Ge  Te  I   Pt 
   1   1   2   2
Cartesian
  2.1925700436779616  1.9274236959261934 -21.8942947790875913
  0.2160371056086440  3.0685824894574179 -23.4541160129970194
 -0.9147807999221440  1.6009805546397253 -19.3964869774338915
  3.0381452488891032  1.6011749599645830 -15.0000000000000036
  1.0615254678026116  0.4598395446477979 -16.4888916939597721
  1.0615725166730479  2.7421458245274337 -17.9084028584398887
