Zr Te In S 
 1.0000000000000000
     3.9185283973168259    0.0000000000000000    0.0000000000000000
    -1.9592641986584129    3.3935451375270933    0.0000000000000000
     0.0000000000000000    0.0000000000000000   42.7079052609299765
 Zr  Te  In  S  
   1   2   2   2
Cartesian
 -0.4403164907467640  1.3836373877844588 16.8615645620742072
  1.5189477079116491  2.5148191002934901 18.7231291241485991
  1.5189477079116491  2.5148191002934901 15.0000000000000000
  2.1936793691961891  1.5113823631977432 23.7112250217488167
  2.1936793691961891  1.5113823631977432 26.5301825300022216
  0.2344151705377765  2.6425640757067743 22.5335022908141624
  0.2344151705377765  2.6425640757067743 27.7079052609299765
