Al Te Zn I 
 1.0000000000000000
     4.1076009895347969   -0.0000000000000000    0.0000000000000000
    -2.0538004947673989    3.5572868055472324    0.0000000000000000
     0.0000000000000000    0.0000000000000000   42.3692468215215570
 Al  Te  Zn  I  
   2   2   1   2
Cartesian
  2.2430737063635728  1.5513244311316945 16.2795918494368550
  2.2430737063635728  1.5513244311316945 18.8534102305006535
  0.1892732115961744  2.7370866996474383 14.9999999999999982
  0.1892732115961744  2.7370866996474383 20.1330020799375831
  0.0526531534119328  0.7305142590202283 25.7418410530091748
  2.1064536481793308  1.9162765275359726 27.3692468215215570
  0.0526531534119321  3.1020387960517168 24.1144352844967855
