Ti Se In O 
 1.0000000000000000
     3.4677833520474302    0.0000000000000000    0.0000000000000000
    -1.7338916760237151    3.0031884776938296    0.0000000000000000
     0.0000000000000000    0.0000000000000000   41.5747597177889858
 Ti  Se  In  O  
   1   2   2   2
Cartesian
 -0.6094172708545186  1.4867539858907215 16.6199398271809464
  1.1244744051691966  2.4878168117886643 18.2398796543619532
  1.1244744051691966  2.4878168117886643 15.0000000000000000
  1.9906776480649826  1.3750727552203981 22.9338248981353701
  1.9906776480649826  1.3750727552203981 25.7840900957566461
  0.2567859720412679  2.3761355811183407 22.1431552731161645
  0.2567859720412679  2.3761355811183407 26.5747597177889858
