Hg Cl Mg Br
 1.0000000000000000
     3.9387642166627774    0.0000000000000000    0.0000000000000000
    -1.9693821083313892    3.4110698711470802    0.0000000000000000
     0.0000000000000000    0.0000000000000000   39.3308581953599585
 Hg  Cl  Mg  Br 
   1   2   1   2
Cartesian
  0.4891295323398999  0.7235046213233625 16.4596042885843232
  2.4585116406712908  1.8605279117057230 17.9192085771686678
  0.4891295323399003  2.9975512020880837 15.0000000000000000
  0.6955655535360292  0.7492253686283145 22.8238325469441961
  2.6649476618674162  1.8862486590106760 24.3308581953599585
  0.6955655535360289  3.0232719493930373 21.3168068985284371
