Pb Te Zn
 1.0000000000000000
     4.3266220170439968    0.0000000000000000    0.0000000000000000
    -2.1633110072855026    3.7474901133113221    0.0000000000000000
    -0.0000000000000000    0.0000000000000000   39.1465780571846338
 Pb  Te  Zn 
   1   3   2
Cartesian
  2.9027765513354136  1.3212171751096693 16.6845068820464810
  0.7394655432255802  2.5703805462134430 15.0000000000000036
  1.4078601505940791  1.0803559077268055 20.3868306910372823
  1.4079672508461576  3.5784036714577607 24.1465780571846373
  1.4077259866744440  1.0804423526192166 23.1977891860435506
  1.4081011840799182  3.5783168626973390 21.3359708980422091
