Zr Br Mg Cl
 1.0000000000000000
     3.6176075395905807    0.0000000000000000    0.0000000000000000
    -1.8088037697952908    3.1329400302075623    0.0000000000000000
     0.0000000000000000    0.0000000000000000   40.2665947774631192
 Zr  Br  Mg  Cl 
   1   2   1   2
Cartesian
 -0.5171071559817770  1.2679157690292508 16.8261924305408073
  1.2916966138135129  2.3122291124317718 18.6523848530272502
  1.2916966138135129  2.3122291124317718 15.0000000000000000
  0.5201706161002935  0.8891430134845031 23.8936889127189822
  2.3289743858955836  1.9334563568870240 25.2665947774631192
  0.5201706161002939  2.9777697002895449 22.5207830479748523
