Ca Cl Zn I 
 1.0000000000000000
     4.1187612261072086   -0.0000000000000000    0.0000000000000000
    -2.0593806130536048    3.5669518539311849    0.0000000000000000
     0.0000000000000000    0.0000000000000000   39.4141926002052827
 Ca  Cl  Zn  I  
   1   2   1   2
Cartesian
  0.6030770896260753  0.9630926659293212 16.4021708164290665
  2.6624577026796787  2.1520766172397154 17.8043416328581401
  0.6030770896260751  3.3410605685501098 15.0000000000000000
  0.7273501530360600  0.7749983699926445 22.7867868316929005
  2.7867307660896636  1.9639823213030394 24.4141926002052827
  0.7273501530360593  3.1529662726134347 21.1593810631805113
