Zr Cl F  Pt
 1.0000000000000000
     3.4010680429051394    0.0000585085648160    0.0000000000000000
    -1.7004832901618314    2.9455663652521196    0.0000000000000000
    -0.0000000000000013   -0.0000000000000000   40.6852842106129913
 Zr  Cl  F   Pt 
   1   2   2   2
Cartesian
 -0.3355814566353888  1.2821335315168045 16.7078992199188079
  1.3649694752474268  2.2640279923107216 18.4157984398376016
  1.3649694752474271  2.2640279923107216 15.0000000000000018
 -0.4990679072388247  1.5959379938122984 21.8919785543843979
  2.9017730774769501  1.5966451429828670 25.6852842106129913
  1.2012960638824808  0.6144744419063787 24.5463951769599831
  1.2014312829975695  2.5780326337416333 23.0309039238364726
