Pb Se Zn I 
 1.0000000000000000
     4.0495510856791173    0.0000000000000000    0.0000000000000000
    -2.0247755428395586    3.5070141141209694    0.0000000000000000
     0.0000000000000000    0.0000000000000000   39.8148804044158098
 Pb  Se  Zn  I  
   1   2   1   2
Cartesian
  0.5751228586034337  0.7049108837736537 16.6690991565004545
  2.5998984014429918  1.8739155884806438 18.3381983130009090
  0.5751228586034335  3.0429202931876338 15.0000000000000000
  0.5878702355685345  0.7910806955823133 23.1874746359034276
  2.6126457784080923  1.9600854002893033 24.8148804044158098
  0.5878702355685341  3.1290901049962936 21.5600688673910383
