Ca I  Ge Br Ge Br
 1.0000000000000000
     4.3164509851703805   -0.0506467540195987    0.0000000000000001
    -2.1144481750507369    3.7637725802571023    0.0000000000000001
     0.0000000000000022   -0.0000000000000000   38.3324745379238152
 Ca  I   Ge  Br  Ge  Br 
   1   2   1   1   1   1
Cartesian
  2.2064505261213094  2.6016147950948665 16.9490723290323366
  4.3792684578846508  3.8224411525008346 18.8981446580646484
  4.3792684578846508  3.8224411525008346 15.0000000000000000
  0.7802719820881303  0.9532651477272549 20.3031258477579506
 -1.3977559807718363 -0.2700686143546647 23.3324745379238152
 -1.3931397310205671 -0.2677237548063918 20.9823498488527491
 -3.5362203650094974  1.0011764241092265 17.9529836283810873
