Mo Te Mg Cl
 1.0000000000000000
     3.6101590141953492    0.0000000000000000    0.0000000000000000
    -1.8050795070976748    3.1264894179945579    0.0000000000000000
     0.0000000000000000    0.0000000000000000   40.1492849917131736
 Mo  Te  Mg  Cl 
   1   2   1   2
Cartesian
 -0.3683899559487686  1.1520180933998512 16.8051000000000030
  1.4366895511489057  2.1941812327313706 18.6101999999999990
  1.4366895511489057  2.1941812327313706 15.0000000000000018
  0.4495240986856570  0.9091223820546352 23.7763791269690330
  2.2546036057833314  1.9512855213861546 25.1492849917131736
  0.4495240986856575  2.9934486607176742 22.4034732622249066
