Pb Se Zn
 1.0000000000000000
     4.0765483097307786    0.0000000000000000    0.0000000000000000
    -2.0382741537014475    3.5305576711793032    0.0000000000000000
    -0.0000000000000000    0.0000000000000000  -38.7804354496673014
 Pb  Se  Zn 
   1   3   2
Cartesian
  2.5171654028688772  1.2336576986640737 -22.2321934029255992
  0.4788912483914683  2.4105102557238411 -23.7804354496673014
  1.3324894984547222  1.3533090495006410 -18.4133035906909797
  1.3325948220973829  3.7068807443756091 -15.0000000000000000
  1.3323889089156007  1.3533639522975047 -15.7576064090810615
  1.3326953822270109  3.7068258395947478 -17.6553219886027435
