Cr Te F  Pt
 1.0000000000000000
     3.4310946317943061    0.0000585085648160    0.0000000000000000
    -1.7154965846064147    2.9715701540191297    0.0000000000000000
    -0.0000000000000013   -0.0000000000000000   40.6689919672664288
 Cr  Te  F   Pt 
   1   2   2   2
Cartesian
 -0.3360721521941434  1.2911727792113865 16.7062363127964844
  1.3794920741332553  2.2817351695943069 18.4124726255929652
  1.3794920741332555  2.2817351695943069 15.0000000000000000
 -0.5062545956627266  1.6090145163390559 21.8756863110378283
  2.9246109732430257  1.6097273917589316 25.6689919672664217
  1.2091213178392286  0.6188863224263744 24.5301029336134135
  1.2092574321827370  2.5997788530514603 23.0146116804899066
