Si S  Sn O 
 1.0000000000000000
     3.2621552552392297   -0.0000000000000001    0.0000000000000000
    -1.6308968868617890    2.8254061856590793    0.0000000000000000
     0.0000000000000012    0.0000000000000020   38.6615698721356154
 Si  S   Sn  O  
   1   2   1   2
Cartesian
  2.4877792358706734  0.8018186417777103 16.3262219077730144
  0.8570863751510158  1.7438803599354509 14.9999999999999982
 -0.7743213142906374  2.6860534107881944 17.6519019534943347
 -0.6116519140814334  0.6160838481718965 22.6526075474632052
  1.0194859604574567  1.5578859100582565 23.6615698721356154
 -0.6115314202428830  2.4996879719446161 21.6436452227907878
