Sn S  Cl Pt
 1.0000000000000000
     3.6916946232709504    0.0000000000000002    0.0000000000000000
    -1.8458473105983333    3.1976690769574150    0.0000000000000000
    -0.0000000000000002    0.0000000000000000   37.8943675128432744
 Sn  S   Cl  Pt 
   1   1   2   2
Cartesian
  2.6178213028395385  0.9974606400930057 16.4598471617338120
  0.7719739915497774  2.0633503324121438 15.0000000000000000
 -0.6984058625475100  1.8040698662688870 18.7110374708637579
  2.9921553810786121  1.8052506464671116 22.8943675128432744
  1.1471427340320774  0.7392316760631641 21.5455846485871376
  1.1473632311972009  2.8705717844961467 20.0618215989287663
