Ca Cl Hg Cl
 1.0000000000000000
     4.0658113234558320   -0.0000000000000000    0.0000000000000000
    -2.0329056617279164    3.5210958931071792    0.0000000000000000
     0.0000000000000000    0.0000000000000000   39.0871553737206625
 Ca  Cl  Hg  Cl 
   1   2   1   2
Cartesian
  0.5106459031455716  0.7775995369724136 16.4021708164290665
  2.5435515648734865  1.9512981680081394 17.8043416328581401
  0.5106459031455713  3.1249967990438652 15.0000000000000000
  0.6922641050200352  0.7266495585882525 22.6275510851363215
  2.7251697667479537  1.9003481896239793 24.0871553737206661
  0.6922641050200357  3.0740468206597065 21.1679467965519983
