S  Ti Bi O 
 1.0000000000000000
     3.9471206706658739   -0.0000000000000000    0.0000000000000000
    -1.9735603342139487    3.4191524963068414    0.0000000000000000
     0.0000000000000000    0.0000000000000000   40.6002921887360557
 S   Ti  Bi  O  
   2   2   2   2
Cartesian
  0.3984690033768533  0.8009508565251504 15.0000000000000000
  0.3986817131573921  3.0797849254015364 18.2247483793411611
  0.3983999644191900  0.8009586317841788 17.4814467457056111
  0.3987507797040307  3.0797771537096974 15.7433429186812184
  2.2114582101341309  1.4526498218669008 22.3197269415445056
  2.2114582101341309  1.4526498218669008 25.4723431449872884
  0.2378978751741901  2.5923673206358480 22.1917777959945681
  0.2378978751741901  2.5923673206358480 25.6002921887360557
