Ge Te Tl S 
 1.0000000000000000
     4.0004533670506630   -0.0000000000000000    0.0000000000000000
    -2.0002266835253315    3.4644942425208627    0.0000000000000000
     0.0000000000000000    0.0000000000000000   40.4697893048710853
 Ge  Te  Tl  S  
   1   1   2   2
Cartesian
  1.9911273715449860  1.8579647974830729 16.5598212339094246
 -0.0090993119803453  3.0127962116566938 14.9999999999999982
  2.4788181197464656  1.4455527042445309 21.3860294966157980
  2.4788181197464656  1.4455527042445309 24.2719469884059365
  0.4785914362211340  2.6003841184181518 20.1881871801511181
  0.4785914362211339  2.6003841184181518 25.4697893048710853
