Ge Te Br Cu
 1.0000000000000000
     3.9480507601186696   -0.0000000000000000    0.0000000000000000
    -1.9740253789304274    3.4199262359957032    0.0000000000000000
     0.0000000000000000    0.0000000000000000   38.9414310162603741
 Ge  Te  Br  Cu 
   1   1   2   2
Cartesian
  2.7025303410795916  1.1732300257211110 16.5598212339094282
  0.7285049613965598  2.3132054377196782 15.0000000000000000
  1.3149807116520389  1.0226380496005676 20.3083027836383216
  1.3158981652665691  3.3016403088800499 23.9414310162603741
  1.3146336490697639  1.0228655442070345 22.7940930737750769
  1.3162431238248471  3.3014136400670719 21.4559812887516266
