Zr Te S  Ti
 1.0000000000000000
     3.9202197725693257   -0.0000000000000000    0.0000000000000000
    -1.9601098851656746    3.3958556351706140    0.0000000000000000
     0.0000000000000000    0.0000000000000000   40.5097932677012196
 Zr  Te  S   Ti 
   1   2   2   2
Cartesian
 -0.3481702132317329  1.4406516785089520 16.8615645620742107
  1.6119396734259261  2.5726035568991561 18.7231291241485991
  1.6119396734259261  2.5726035568991561 15.0000000000000000
  1.3136776279433247  0.7761108084564328 22.2850448883600585
  1.3138888880433126  3.0394177310846002 25.5097932677012196
  1.3136090595083840  0.7761185307376752 24.7664916340656696
  1.3139574838792007  3.0394100123462415 23.0283878070412769
