Ti Te Pt S 
 1.0000000000000000
     3.5909127258770925    0.0000000000000000    0.0000000000000000
    -1.7954563629385463    3.1098216433823884    0.0000000000000000
    -0.0000000000000000    0.0000000000000000  -41.7851646150482026
 Ti  Te  Pt  S  
   2   2   1   2
Cartesian
  2.0794917150478129  1.4148700251380992 -19.0942779024546603
  2.0794917150478129  1.4148700251380992 -16.7151615237054081
  0.2840353521092669  2.4514772395988951 -20.8094364375122645
  0.2840353521092669  2.4514772395988951 -15.0000000000000000
  0.1954938627304052  0.5432803781050833 -25.5531372455477310
  1.9909502256689511  1.5798875925658795 -24.3211098760472595
  0.1954938627304050  2.6164948070266756 -26.7851646150481990
