Ni Se Pd S 
 1.0000000000000000
     3.5475711882441292    0.0000000000000000    0.0000000000000000
    -1.7737855941220646    3.0722867707531627    0.0000000000000000
     0.0000000000000000    0.0000000000000000   38.4491858244045090
 Ni  Se  Pd  S  
   1   2   1   2
Cartesian
  0.5297584012169283  0.6598428568114949 16.2453409434781548
  2.3035439953389929  1.6839384470625491 17.4906818874949650
  0.5297584012169281  2.7080340373136034 14.9999999999999982
  0.6121760537202042  0.6876616475480147 22.2041139909999785
  2.3859616478422687  1.7117572377990691 23.4491858244045090
  0.6121760537202042  2.7358528280501231 20.9590421575954480
