Se Ti S  Zn
 1.0000000000000000
     3.9821580738553468    0.0000000000000000    0.0000000000000000
    -1.9910790346530014    3.4498347432071439    0.0000000000000000
    -0.0000000000000000    0.0000000000000000   40.1372975069067479
 Se  Ti  S   Zn 
   2   2   2   2
Cartesian
  1.1942891265769247  0.8170064580482843 15.0000000000000000
  1.1943956981463466  3.1163143072684396 18.5593314578672803
  1.1940974739632833  0.8170733704237112 17.6333181360686524
  1.1945874313303271  3.1162474212864097 15.9260846234147593
  1.1602865775274023  0.9880100895015620 22.0165548650036733
  1.1603584090792067  3.2876993309561806 25.1372975069067479
  1.1601576114687668  0.9880593128018031 24.5980149540130206
  1.1604873904092228  3.2876502388476068 22.5559832694829723
