S  Hf Se Hf
 1.0000000000000000
     4.2067986597633880   -0.0000000000000000    0.0000000000000000
    -2.1033993274787033    3.6444310118665557    0.0000000000000000
    -0.0000000000000000    0.0000000000000000   40.2941512598035061
 S   Hf  Se  Hf 
   2   2   2   2
Cartesian
  1.2773289718373910  0.9552448678533426 15.0000000000000000
  1.2776577507283151  3.3843429432278227 18.3254866465823731
  1.2774577770864481  0.9551186491917988 17.6045811352982824
  1.2775289353983579  3.3844691671621607 15.7209963454440533
  1.3666523604219372  0.9386228661573910 21.6028747302676400
  1.3669128355487796  3.3676792744426165 25.2941512598035061
  1.3667128032639428  0.9385564552063592 24.3715230814552513
  1.3668524668172748  3.3677457371197717 22.5259418356463748
