Mo Te Hf S 
 1.0000000000000000
     3.5997869714746056   -0.0000000000000000    0.0000000000000000
    -1.7998934857373028    3.1175069655092567    0.0000000000000000
    -0.0000000000000000    0.0000000000000000   40.4346689447573979
 Mo  Te  Hf  S  
   1   2   1   2
Cartesian
 -0.7299755884175408  1.4561891302437369 16.8050999999999995
  1.0699178973197618  2.4953581187468230 18.6101999999999990
  1.0699178973197618  2.4953581187468230 15.0000000000000000
  0.5026759463203181  0.9187500605817350 23.9865646427661972
  2.3025694320576204  1.9579190490848206 25.4346689447573908
  0.5026759463203181  2.9970880375879068 22.5384603407753410
