Hg F  Pt S 
 1.0000000000000000
     3.6163845324693655   -0.0000000000000000    0.0000000000000000
    -1.8081922662346805    3.1318808749715785    0.0000000000000000
     0.0000000000000002    0.0000000000000000   38.0591842098283735
 Hg  F   Pt  S  
   1   2   1   2
Cartesian
  0.4926632977466409  0.7411306790102423 16.0286721523601834
  2.3008555639813144  1.7850909706674349 17.0573443047203988
  0.4926632977466395  2.8290512623246280 15.0000000000000000
  0.6147466990838673  0.4957094607841893 21.8271568403279126
  2.4229389653185507  1.5396697524413820 23.0591842098283806
  0.6147466990838686  2.5836300440985749 20.5951294708274446
