Br Cd In Se In
 1.0000000000000000
     4.0944675505055024    0.0014024937248978    0.0000000000000000
    -2.0460091697509202    3.5517307340472763    0.0000000000000000
     0.0000000000000034    0.0000000000000000   44.0212095513365398
 Br  Cd  In  Se  In 
   2   2   1   2   1
Cartesian
  1.1896426803594131 -0.6865080796125643 15.0000000000000000
  1.2029108505032946  4.0256095043121523 20.7228492099077997
  1.2027263888282704  1.6579616348687296 19.2010592037222949
  1.1894143810362086  1.6814735397043739 16.5215258816320940
  0.7397302615594948  3.0119370606304234 27.7507938022176077
  2.7865640480670653  1.8281331427530658 23.6654815693584979
  0.7387603681136888  0.6434299183704236 29.0212095513365398
  0.7395852557910435  3.0121510778453255 24.9358895340466162
