In Se Zn I 
 1.0000000000000000
     4.0870698218463204   -0.0000000000000000    0.0000000000000000
    -2.0435349109231606    3.5395062927596532    0.0000000000000000
     0.0000000000000000    0.0000000000000000   42.6092937751815839
 In  Se  Zn  I  
   2   2   1   2
Cartesian
  2.3449115819297370  1.6413246649264479 16.2765302461401262
  2.3449115819297370  1.6413246649264479 19.0907759595263897
  0.3013766710065769  2.8211600958463325 15.0000000000000000
  0.3013766710065769  2.8211600958463325 20.3673061832687665
 -0.0049287159462447  0.5269065212170225 25.9818880066692017
  2.0386061949769152  1.7067419521369072 27.6092937751815839
 -0.0049287159462453  2.8865773830567920 24.3544822381568125
