Sn Te Se Ti
 1.0000000000000000
     4.1072376684684073   -0.0000000000000000    0.0000000000000000
    -2.0536188330798621    3.5579010784146021    0.0000000000000000
     0.0000000000000000    0.0000000000000000  -39.1621934047148414
 Sn  Te  Se  Ti 
   1   1   2   2
Cartesian
  2.3355618594549137  1.2662471381101845 -22.4760328541501977
  0.2819430256054901  2.4522141642483843 -24.1621934047148379
  1.5365693243111482  1.3923877659066064 -18.5593314578672803
  1.5366792424995028  3.7637216080437343 -15.0000000000000000
  1.5363716518884316  1.3924567743172729 -15.9260133217986244
  1.5368769980232733  3.7636526268532404 -17.6332468344525211
