I  Zn Cd I 
 1.0000000000000000
     4.2579965908546411    0.0000000000000035    0.0000000000000000
    -2.1276123269646998    3.6883327023083883    0.0000000000000000
     0.0000000000000013    0.0000000000000023   42.6945625481645408
 I   Zn  Cd  I  
   2   2   1   2
Cartesian
  0.5866146061932831  0.8487734491229093 15.0000000000000000
  0.5761372629343345  3.2968247104803656 20.3033500334364945
  2.7040995609784377  2.0647739579279163 18.8373937388954857
  2.7170053898277478  2.0813502275811078 16.4658492361148312
 -0.0162284755561763  1.0655913375482076 25.9740461263866464
  2.1132318093586848  2.2950355716510060 27.6945625481645479
 -0.0153044965810957  3.5244798057538009 24.2535297046087273
