Tl Se Cd Br
 1.0000000000000000
     4.1423608386294362    0.0000000000000000    0.0000000000000000
    -2.0711804193147181    3.5873897178949021    0.0000000000000000
     0.0000000000000000    0.0000000000000000   42.5971610587933611
 Tl  Se  Cd  Br 
   2   2   1   2
Cartesian
  2.1611976842717295  1.6150966825297277 16.2878300414387418
  2.1611976842717295  1.6150966825297277 19.1809988256016233
  0.0900172649570117  2.8108932551613615 15.0000000000000000
  0.0900172649570117  2.8108932551613615 20.4688289080443653
  0.0494803228492903  0.6251133413109274 26.0305532080774036
  2.1206607421640085  1.8209099139425609 27.5971610587933540
  0.0494803228492905  3.0167064865741944 24.4639453573614674
