Pd O  Pt O 
 1.0000000000000000
     3.1208347088480570    0.0000000000000000    0.0000000000000000
    -1.5604173544240285    2.7027221388746296    0.0000000000000000
     0.0000000000000000    0.0000000000000000   37.4493774163740838
 Pd  O   Pt  O  
   1   2   1   2
Cartesian
  0.4708105005716940  0.6442038189619784 15.9790201188321674
  2.0312278549957226  1.5451111985868549 16.9580402376643349
  0.4708105005716940  2.4460185782117314 15.0000000000000000
  0.5238754726329514  0.5961119663475946 21.5064596389206137
  2.0842928270569798  1.4970193459724710 22.4493774163740838
  0.5238754726329514  2.3979267255973475 20.5635418614671437
