Cl Ag Ge Br Ge Br
 1.0000000000000000
     4.3237535741539581   -0.0506467540195987    0.0000000000000001
    -2.1180994682857701    3.7781674585352700    0.0000000000000001
     0.0000000000000021   -0.0000000000000000   37.4647549189323286
 Cl  Ag  Ge  Br  Ge  Br 
   2   2   1   1   1   1
Cartesian
  4.3449807448632392 -0.0943084159001570 15.0000000000000000
  4.3696723271043387  2.4024835315666682 18.2868565417185991
  4.3405139882254717 -0.0921302903304851 17.9775021923323379
  4.3741740642063931  2.4002865576629917 15.3080484603362681
  0.5488032658941505  2.1170550574851283 19.4354062287664604
 -1.6328847553503321  0.8889131138679438 22.4647549189323286
 -1.6282607433292033  0.8912672095758947 20.1146302298612625
 -3.7749916859693684  2.1649558005039267 17.0852640093895971
