Mo Te W  Te
 1.0000000000000000
     3.5487342669509916    0.0000000000000000    0.0000000000000000
    -1.7743671334754958    3.0732940264599060    0.0000000000000000
     0.0000000000000000    0.0000000000000000   41.2182046930868751
 Mo  Te  W   Te 
   1   2   1   2
Cartesian
  0.2170716406185643  0.9838776428083513 16.8050999999999995
  1.9914387740940596  2.0083089849616536 18.6101999999999990
  1.9914387740940596  2.0083089849616536 15.0000000000000000
  0.1774091740130465  1.3447166776427113 24.4062424798534110
  1.9517763074885424  2.3691480197960129 26.2182046930868751
  1.9517763074885424  2.3691480197960129 22.5942802666199469
