F  Pd Zr O 
 1.0000000000000000
     3.2816213255375231   -0.0000000000000000    0.0000000000000000
    -1.6408106618278471    2.8436684171978932    0.0000000000000000
     0.0000000000000012    0.0000000000000000  -38.5286150636790552
 F   Pd  Zr  O  
   2   2   1   2
Cartesian
 -0.3886945424451504  1.5209439996027474 -18.8818537777082334
  2.8912627096501597  1.5248953375802601 -14.9999999999999964
  1.2511634141069450  0.5757565004604286 -16.1326080480190832
  1.2513236462958115  2.4703550882399652 -17.7492963114458249
  0.7378285962899842 -0.3884026832022454 -22.5672830912474751
  2.3786392593723837  0.5594867891970523 -21.6059511188158986
  0.7378285969172604  1.5073762615963497 -23.5286150636790552
