Al S  Mg Cl
 1.0000000000000000
     3.6284654641641900    0.0000000000000000    0.0000000000000000
    -1.8142327320820955    3.1423432687206829    0.0000000000000000
     0.0000000000000000    0.0000000000000000   41.4479812314923493
 Al  S   Mg  Cl 
   2   2   1   2
Cartesian
  1.9249680580824213  1.4809572007735314 16.0691806254429039
  1.9249680580824213  1.4809572007735314 18.6673481735629565
  0.1107353260003265  2.5284049570137590 15.0000000000000036
  0.1107353260003265  2.5284049570137590 19.7365287990058391
 -0.2763419510300202  0.7809208459855819 25.0750753667482087
  1.5378907810520750  1.8283686022258094 26.4479812314923493
 -0.2763419510300199  2.8758163584660368 23.7021695020040823
