Al Se Sn S 
 1.0000000000000000
     3.7368385983088164   -0.0000000000000000    0.0000000000000000
    -1.8684192991544082    3.2361971559776679    0.0000000000000000
    -0.0000000000000000    0.0000000000000000   41.8658918270687010
 Al  Se  Sn  S  
   2   2   1   2
Cartesian
  2.0475057619368462  1.4319714623638264 16.1674793328362654
  2.0475057619368462  1.4319714623638264 18.7553318157724647
  0.1790864627824379  2.5107038476897157 15.0000000000000000
  0.1790864627824379  2.5107038476897157 19.9228111486087727
  0.0628627360305781  0.6436958963001833 25.3883204242842773
  1.9312820351849862  1.7224282816260725 26.8658918270687010
  0.0628627360305781  2.8011606669519620 23.9107490214998535
