S  Ir Sn O 
 1.0000000000000000
     3.2494076442314634    0.0000000000000000    0.0000000000000000
    -1.6247038211791356    2.8143879288308922    0.0000000000000000
    -0.0000000000000000    0.0000000000000000   40.5801534757684763
 S   Ir  Sn  O  
   2   2   1   2
Cartesian
  1.0238032273605771  0.6516820581607291 15.0000000000000000
  1.0236564745529100  2.5280825013891803 19.6502937780201563
  1.0236145233818463  0.6520273554363385 18.3976254675456090
  1.0238454216418971  2.5277369410275266 16.2526844590143291
  0.5944747967662740 -0.0622167924133019 24.5711911510960732
  2.2191786191942047  0.8759125171969955 25.5801534757684834
  0.5944747973906714  1.8140418268072929 23.5622288264236559
