Zr Cl Pb O 
 1.0000000000000000
     3.4061643325173252    0.0000000000000000    0.0000000000000000
    -1.7030821662586626    2.9498248414244692    0.0000000000000000
     0.0000000000000000    0.0000000000000000   39.3326514611807880
 Zr  Cl  Pb  O  
   1   2   1   2
Cartesian
 -0.3114309746813365  1.0417726311092070 16.7078992199188079
  1.3916511915773260  2.0250475782506969 18.4157984398376016
  1.3916511915773260  2.0250475782506969 14.9999999999999982
  0.5061646161924593  0.9422828804242946 23.2740323050361084
  2.2092467824511215  1.9255578275657843 24.3326514611807880
  0.5061646161924593  2.9088327747072742 22.2154131488914288
