Cl Ag Tl Te Tl
 1.0000000000000000
     4.4600205417425896    0.0000000000000000    0.0000000000000000
    -2.2300102696145387    3.8705617412545097    0.0000000000000000
    -0.0000000000000000    0.0000000000000000   42.4814649041050103
 Cl  Ag  Tl  Te  Tl 
   2   2   1   2   1
Cartesian
  1.2549837198200084  0.1362100093024297 15.0000000000000000
  1.2504108546578345  2.7112667360188270 18.2868565417185991
  1.2503506135949913  0.1384021948266108 17.9775021923323379
  1.2550802656242264  2.7090555361322650 15.3080484603362663
  0.7910763592155776  3.4035229815830199 26.1023696918740882
  3.0209696844338199  2.1127823740886535 21.8233227836027872
  0.7907140227440960  0.8227568587786733 27.4814649041050032
  0.7905941590233074  3.4040786808805188 23.2024132924354056
