Br Ag Cl Ag
 1.0000000000000000
     4.4171561157235919   -0.0000000000000000    0.0000000000000000
    -2.2085780553386463    3.8358675519441094    0.0000000000000000
    -0.0000000000000000    0.0000000000000000   40.8171188260183087
 Br  Ag  Cl  Ag 
   2   2   2   2
Cartesian
  1.4818813952057006  0.9803212592705299 14.9999999999999982
  1.4847182623469162  3.5349122360380218 18.8414998721338023
  1.4807494983132981  0.9811028091353874 17.8250159142190086
  1.4858563633726360  3.5341213211962268 16.0173027462489586
  1.3254306188177085  1.0022964664377709 22.5302622842997025
  1.3209017034607229  3.5542713999845899 25.8171188260183015
  1.3208420405136707  1.0044690020752780 25.5077644766320475
  1.3255262375880272  3.5520800204219491 22.8383107446359688
