Sn S  Zn Cl
 1.0000000000000000
     3.6474155171309426    0.0000000000000000    0.0000000000000000
    -1.8237077585654715    3.1587544959929517    0.0000000000000000
     0.0000000000000000    0.0000000000000000   39.2683205404320148
 Sn  S   Zn  Cl 
   1   2   1   2
Cartesian
  0.4796352048865108  0.7647115005696594 16.4775714027844202
  2.3033429634519820  1.8176296659006432 17.9551428055688476
  0.4796352048865107  2.8705478312316268 14.9999999999999982
  0.7109865701068445  0.5225688515138187 22.9008535518498988
  2.5346943286723151  1.5754870168448021 24.2683205404320148
  0.7109865701068445  2.6284051821757859 21.5333865632677615
