Pb Br Hg
 1.0000000000000000
     4.2435778737936483    0.0010674728082233    0.0000000000000000
    -2.1208568589319947    3.6815439920393320    0.0000000000000000
     0.0000000000000034    0.0000000000000000   41.9253234850912833
 Pb  Br  Hg 
   1   4   2
Cartesian
 -0.5196677205647936  1.5024464851928196 16.8414801415537880
  1.6024319089869736  2.7303394644114123 18.6829602831084500
  1.6024319089869732  2.7303394644114123 15.0000000000000036
  1.2062075825174770 -0.3887657281077717 21.1556712119303043
  1.2169650816328441  4.4979478101839643 26.9253234850912833
  1.2215457909103384  2.0406431825964639 25.3735628292512416
  1.2021911072127813  2.0682152305070285 22.7069405060375118
