Hf Te Pd Se
 1.0000000000000000
     3.9552117402444051    0.0000000000000000    0.0000000000000000
    -1.9776058701222026    3.4253138443981133    0.0000000000000000
    -0.0000000000000000    0.0000000000000000   40.0908665994804068
 Hf  Te  Pd  Se 
   1   2   1   2
Cartesian
  0.1485805447967303  1.4967934012990916 16.8494380278571043
  2.1261864149189327  2.6385646827651295 18.6988761198817670
  2.1261864149189327  2.6385646827651295 15.0000000000000000
  0.3239887737254424  1.5918918098396353 23.8926733889230789
  2.3015946438476447  2.7336630913056732 25.0908665994804139
  2.3015946438476447  2.7336630913056732 22.6944801783759402
