In S  In I  Pt
 1.0000000000000000
     3.9410976215448756    0.0000237985287992    0.0000000000000000
    -1.9705281920684907    3.4131234623910482    0.0000000000000000
    -0.0000000000000002   -0.0000000000000000   43.2359765023510221
 In  S   In  I   Pt 
   1   2   1   2   2
Cartesian
  0.6607282925744991  2.9876143313318688 18.9926140749650472
  2.6312799827382389  1.8495872936308819 15.0000000000000000
  0.6605014880877400  0.7120340743060776 20.1674250803514425
  0.6605249848302442  2.9878266905327613 16.1748100312234726
 -0.7392092923527229  1.4562966576774845 23.8394895249171341
  3.2017352215537973  1.4564905458877684 28.2359765023510221
  1.2311066622243645  0.3186144993563872 26.7470848083912500
  1.2311536101507412  2.5940030744882878 25.3275736439111370
