I  In Te Zn
 1.0000000000000000
     4.4040321122092090   -0.0000000000000000    0.0000000000000000
    -2.2020160535889515    3.8159933003927815    0.0000000000000000
     0.0000000000000000    0.0000000000000000   43.2524728522507473
 I   In  Te  Zn 
   2   2   2   2
Cartesian
  1.2974972236919324  0.9556884482849929 14.9999999999999982
  1.2975569220177141  3.4991296111086516 21.3524645728796330
  1.2967751435930217  0.9561232475595780 19.4937901734132986
  1.2982791348320784  3.4986952631226682 16.8594830012002284
  1.4169948216258614  1.0255209228736621 24.4927254861033958
  1.4171038389083801  3.5692323783351014 28.2524728522507473
  1.4168582573020263  1.0256089479572033 27.3036839811096641
  1.4172401684190064  3.5691439827321330 25.4418656931083262
