Tl Se Ca Cl
 1.0000000000000000
     4.1801366048585731    0.0000000000000000    0.0000000000000000
    -2.0900683024292865    3.6201044910967575    0.0000000000000000
     0.0000000000000000    0.0000000000000000   41.5884713432339410
 Tl  Se  Ca  Cl 
   2   2   1   2
Cartesian
  2.3908250663125248  1.5801824767041812 22.4074724766283175
  2.3908250663125248  1.5801824767041812 25.3006412607911990
  0.3007567638832380  2.7868839737364337 21.1196424351895757
  0.3007567638832381  2.7868839737364337 26.5884713432339410
  0.2354181238269040  0.6295068750424722 16.4021708164290629
  2.3254864262561896  1.8362083720747242 17.8043416328581401
  0.2354181238269041  3.0429098691069765 14.9999999999999982
