I  Pt Cd Cl
 1.0000000000000000
     3.9311524080583400    0.0000237985287992    0.0000000000000000
    -1.9655555853252231    3.4045106548656485    0.0000000000000000
    -0.0000000000000002   -0.0000000000000000   40.4737792790099888
 I   Pt  Cd  Cl 
   2   2   1   2
Cartesian
 -0.8255616031048468  1.9176820795224818 14.9999999999999982
  3.1054380836791702  1.9178755385210595 19.3964869774338879
  1.1397823149896928  0.7828708123002566 17.9075952834741159
  1.1398291791312096  3.0525176040673530 16.4880841189940028
  0.7647505943309323  0.1692343861326060 24.0359078623976998
  2.7303336712614170  1.3040871367736886 25.4737792790099888
  0.7647643401335638  2.4389160888859722 22.5980364457854250
