Cr S  Al O 
 1.0000000000000000
     3.0118580428288988    0.0000000000000000    0.0000000000000000
    -1.5059290214144494    2.6083455776823063    0.0000000000000000
     0.0000000000000000    0.0000000000000000   40.8667222499890954
 Cr  S   Al  O  
   1   2   2   2
Cartesian
 -0.7445400602628481  1.3384664696565909 16.4740845698072640
  0.7613889611516012  2.2079149955506927 17.9481691396145280
  0.7613889611516012  2.2079149955506927 15.0000000000000000
  1.7145621532744868  1.2422465622500529 22.5761365557330933
  1.7145621532744868  1.2422465622500529 25.1986139941799721
  0.2086331318600373  2.1116950881441547 21.9080282999239451
  0.2086331318600373  2.1116950881441547 25.8667222499890954
