Pt O  B  P 
 1.0000000000000000
     3.1818344859387384    0.0000000000000000    0.0000000000000000
    -1.5909172429693692    2.7555494954603477    0.0000000000000000
     0.0000000000000000    0.0000000000000000   35.8244753779410559
 Pt  O   B   P  
   1   2   1   1
Cartesian
  0.8103150680699091 -0.1030332003790859 15.9429177774534701
  2.4012323110392781  0.8154832981076967 16.8858355549069401
  0.8103150680699091  1.7339997965944796 15.0000000000000000
  0.1491530789388617  1.9528920552719300 20.8244753779410559
  1.7400703219082319  1.0343755567851476 20.8244753779410559
