Tl S  Tl S 
 1.0000000000000000
     4.0592136564563344   -0.0000000000000000    0.0000000000000000
    -2.0296068282281672    3.5153821458799044    0.0000000000000000
     0.0000000000000000    0.0000000000000000   43.9234449654247285
 Tl  S   Tl  S  
   1   2   3   2
Cartesian
 -0.0457526508741719  3.0335796563296835 19.0808900263254024
  1.9837083045202588  1.8613227979661047 15.0000000000000000
 -0.0460784752335670  0.6896915085373527 20.2777474121569732
 -0.0462243528592768  3.0340448957685404 16.1968552813114499
  2.0369066159874305  1.6803719724888462 24.8396851571694448
  2.0369066159874305  1.6803719724888462 27.7256026489595833
  0.0072997877592631  2.8521660211154805 23.6418428407047685
  0.0072997877592631  2.8521660211154805 28.9234449654247356
