Hf Br Cl Pt
 1.0000000000000000
     3.5657686693859905    0.0000000000000002    0.0000000000000000
    -1.7828843336558533    3.0886140018972519    0.0000000000000000
    -0.0000000000000002    0.0000000000000000   41.2453378117940375
 Hf  Br  Cl  Pt 
   1   2   2   2
Cartesian
 -0.3434408436325181  1.3854875940692000 16.8486980501143790
  1.4394434914061911  2.4150255947016173 18.6973960898101055
  1.4394434914061911  2.4150255947016173 15.0000000000000000
 -0.6075097828618041  1.7186887048911150 22.0620077698145209
  2.9571641671499123  1.7198292151082857 26.2453378117940375
  1.1750860261161618  0.6901663453623763 24.8965549475379007
  1.1752990020121583  2.7488180517406171 23.4127918978795329
