Zr Br Zn Cl
 1.0000000000000000
     3.5805821780929241   -0.0000000000000000    0.0000000000000000
    -1.7902910890464625    3.1008751265662893    0.0000000000000000
     0.0000000000000000    0.0000000000000000   40.2438143835821904
 Zr  Br  Zn  Cl 
   1   2   1   2
Cartesian
 -0.4953287816044009  1.1736771929445968 16.8261924305408073
  1.2949623074420611  2.2073022351333593 18.6523848530272502
  1.2949623074420611  2.2073022351333593 15.0000000000000000
  0.5565491588307222  0.9037966023029418 23.8763473950000815
  2.3468402478771835  1.9374216444917045 25.2438143835821975
  0.5565491588307221  2.9710466866804675 22.5088804064179442
