Pb Cl Br Cd
 1.0000000000000000
     4.1421660332524386    0.0014024937248978    0.0000000000000000
    -2.0698584111243878    3.5930388318280970    0.0000000000000000
    -0.0000000000000033   -0.0000000000000000  -41.9359254387936176
 Pb  Cl  Br  Cd 
   1   2   2   2
Cartesian
 -0.3614228651653271  1.5634787811359478 -25.2355226085123618
  1.7100683532948362  2.7620933875619120 -23.5351197782311097
  1.7100683532948358  2.7620933875619120 -26.9359254387936140
  1.3872389220919512 -0.0635555084442583 -20.7228492099078068
  1.4006427365838694  4.7033550877617714 -15.0000000000000000
  1.4004656341447208  2.3081759273138771 -16.5217900061855119
  1.3869984537344759  2.3319612844045126 -19.2013233282757056
