Pb Se Si F 
 1.0000000000000000
     4.0110430793457796    0.0000000000000000    0.0000000000000000
    -2.0055215396705131    3.4736652023860728    0.0000000000000000
     0.0000000000000012    0.0000000000000021   39.3858468870575962
 Pb  Se  Si  F  
   1   1   2   2
Cartesian
  2.2952428185086440  1.3641889635169102 16.5482420467416986
  0.2897212788365465  2.5220773643122669 14.9999999999999982
  1.3617695758323509  0.8054593816181448 22.0395907911967015
  1.3617695738388540  3.1212361832088598 22.7434178516170320
  1.3617695758323509  0.8054593816181443 20.3971617557571534
  1.3617695738388540  3.1212361832088606 24.3858468870575962
