Zn F  B  P 
 1.0000000000000000
     3.1803314515895842    0.0000000000000000    0.0000000000000000
    -1.5901657257947921    2.7542478295312200    0.0000000000000000
     0.0000000000000000    0.0000000000000000   35.9830022846330522
 Zn  F   B   P  
   1   2   1   1
Cartesian
  0.5264358695461109  0.3493437281414516 19.9872353802885740
  2.1166015953409025  1.2674263379851913 20.9830022846330593
  0.5264358695461111  2.1855089478289309 18.9914684759440711
  0.7528678162893273  2.0743021856164443 15.0000000000000036
  2.3430335420841200  1.1562195757727043 15.0000000000000036
