Ti Te Al Se
 1.0000000000000000
     3.7572504996866591   -0.0000000000000000    0.0000000000000000
    -1.8786252498433296    3.2538743811104225    0.0000000000000000
    -0.0000000000000000    0.0000000000000000   42.1990162905994097
 Ti  Te  Al  Se 
   1   2   2   2
Cartesian
 -0.2528247093103800  1.1540069237368571 16.7885301883608946
  1.6258005405329499  2.2386317174403314 18.5770603767261022
  1.6258005405329499  2.2386317174403314 15.0000000000000000
  2.0021979214418186  1.3893983090870929 23.4436844748268953
  2.0021979214418186  1.3893983090870929 26.0315369577630946
  0.1235726715984891  2.4740231027905670 22.2762051419906300
  0.1235726715984891  2.4740231027905670 27.1990162905994026
