Ti I  Hf S 
 1.0000000000000000
     3.7105526959851778    0.0000000000000000    0.0000000000000000
    -1.8552763479925889    3.2134328968040005    0.0000000000000000
    -0.0000000000000000    0.0000000000000000   35.2592851490724115
 Ti  I   Hf  S  
   1   2   1   2
Cartesian
 -0.4594871842264848  1.4126939847410696 16.8143657812576173
  1.3957891637661035  2.4838382836757362 18.6287315661405408
  1.3957891637661035  2.4838382836757362 15.0000000000000000
  0.2721912708845911  1.0310403549864815 18.8111808470812178
  2.1274676188771795  2.1021846539211486 20.2592851490724115
  0.2721912708845911  3.1733289528558153 17.3630765450903617
