Hf S  Mg Cl
 1.0000000000000000
     3.6625536738393318    0.0000000000000000    0.0000000000000000
    -1.8312768369196664    3.1718645242688863    0.0000000000000000
    -0.0000000000000000    0.0000000000000000   39.0592764429636006
 Hf  S   Mg  Cl 
   1   2   1   2
Cartesian
  0.5114131360318730  0.7467230554618647 16.4481043019908562
  2.3426899729515385  1.8040112302181601 17.8962086039820498
  0.5114131360318727  2.8612994049744556 15.0000000000000000
  0.6858139394407163  0.9434805846473182 22.6863705782194636
  2.5170907763603823  2.0007687594036137 24.0592764429636006
  0.6858139394407168  3.0580569341599091 21.3134647134753337
