Sn Se Pb S 
 1.0000000000000000
     3.8774046350419606   -0.0000000000000000    0.0000000000000000
    -1.9387023175209803    3.3579309146978682    0.0000000000000000
     0.0000000000000000    0.0000000000000000   38.1777048998778312
 Sn  Se  Pb  S  
   1   1   1   2
Cartesian
  2.1721472695747694  0.9840691233047469 16.5586206887278209
  0.2334449520537897  2.1033794282040361 15.0000000000000000
  0.8921092542929676  0.1095332049216337 21.6357145418401977
  2.8308115718139479  1.2288435098209229 23.1777048998778312
  0.8921092542929676  2.3481538147202126 20.0937241838025642
