Br Cu Pt Te
 1.0000000000000000
     3.9842341560721000    0.0000000000000000    0.0000000000000000
    -1.9921170769071426    3.4512619760865695    0.0000000000000000
    -0.0000000000000000    0.0000000000000000   40.3339523200940349
 Br  Cu  Pt  Te 
   2   2   1   2
Cartesian
  1.1492815941191112  0.8717249936986595 15.0000000000000000
  1.1502074560754285  3.1716090549631155 18.6331282326220524
  1.1489313507512788  0.8719545727687574 17.4857902901367517
  1.1505555761361446  3.1713803092529997 16.1476785051133049
  0.6356689586336384  0.3106796818220363 23.9467380905405278
  2.6277860370459898  1.4611003405175591 25.3339523200940349
  0.6356689593862432  2.6115209992130821 22.5595238619435001
