Hg Br Mg I 
 1.0000000000000000
     4.1753019397890760    0.0000000000000000    0.0000000000000000
    -2.0876509698945380    3.6159175483277872    0.0000000000000000
     0.0000000000000000    0.0000000000000000   39.8389152139583373
 Hg  Br  Mg  I  
   1   2   1   2
Cartesian
  0.4731677708277997  0.7671718577578422 16.5894075761307960
  2.5608187407223362  1.9724777072004380 18.1788151522615991
  0.4731677708277994  3.1777835566430337 15.0000000000000000
  0.6156167497795673  0.6788317793862709 23.1645975572904739
  2.7032677196741037  1.8841376288288676 24.8389152139583373
  0.6156167497795673  3.0894434782714644 21.4902799006226068
