W  Te Zr Br
 1.0000000000000000
     3.5561827923462230   -0.0000000000000000    0.0000000000000000
    -1.7780913961731115    3.0797446386729104    0.0000000000000000
     0.0000000000000000    0.0000000000000000   41.2707547065873186
 W   Te  Zr  Br 
   1   2   1   2
Cartesian
  0.2004957535934063  1.2046500850818360 16.8119622132334641
  1.9785871497665179  2.2312316313061391 18.6239244264669281
  1.9785871497665179  2.2312316313061391 15.0000000000000000
  0.2991856853520571  1.3975052070328597 24.4445622841008685
  2.0772770815251684  2.4240867532571633 26.2707547065873115
  2.0772770815251684  2.4240867532571633 22.6183698535600612
