Ca Cl Hf Te
 1.0000000000000000
     3.9275977519911853    0.0000000000000000    0.0000000000000000
    -1.9637988759955927    3.4013994290710197    0.0000000000000000
    -0.0000000000000000    0.0000000000000000   40.9284714607243956
 Ca  Cl  Hf  Te 
   1   2   1   2
Cartesian
  0.1495115368211750  1.5310752309478786 16.6160803132927661
  2.1133104128167677  2.6648750406382185 18.2321606265855323
  2.1133104128167677  2.6648750406382185 15.0000000000000000
  0.3046203076452518  1.5053783245117542 24.0790333686997329
  2.2684191836408445  2.6391781342020941 25.9284714607243956
  2.2684191836408445  2.6391781342020941 22.2295953408426286
