Sn O  Pb O 
 1.0000000000000000
     3.3724162365910071   -0.0000000000000000    0.0000000000000000
    -1.6862081182955035    2.9205981330229234    0.0000000000000000
    -0.0000000000000000    0.0000000000000000   36.7996021222370970
 Sn  O   Pb  O  
   1   1   1   2
Cartesian
  1.9320932201456109  1.2113308325951953 16.0113936186181398
  0.2458851018501069  2.1848635436028361 15.0000000000000000
  0.5839779099587163  0.1050353438878017 20.7409829660924174
  2.2701860282542197  1.0785680548954428 21.7996021222370970
  0.5839779099587163  2.0521007659030839 19.6823638099477378
