I  Zn Tl S  Tl
 1.0000000000000000
     4.1262962503398359    0.0000000000000035    0.0000000000000000
    -2.0617621567072977    3.5742768617355067    0.0000000000000000
     0.0000000000000013    0.0000000000000023   43.8268087687202694
 I   Zn  Tl  S   Tl 
   2   2   1   2   1
Cartesian
  0.5510720019353966  1.1151446873291877 14.9999999999999982
  0.5409471769709455  3.4874938450762842 20.3033500334364945
  2.6030770285954365  2.2935423084982705 18.8373937388954857
  2.6155838712849344  2.3096059832958855 16.4658492361148348
  0.1801913830029382  3.0757976260002042 27.6299513828887058
  2.2427290526895236  1.8839014420332867 23.5490613565632998
  0.1789360767953674  0.6926413074278248 28.8268087687202694
  0.1797120690919513  3.0762706597963803 24.7459166378747497
