Zr Se Cd F 
 1.0000000000000000
     3.5539220532523541   -0.0000000000000000    0.0000000000000000
    -1.7769610266261748    3.0777867811862967    0.0000000000000000
    -0.0000000000000002    0.0000000000000000  -41.5324999375419992
 Zr  Se  Cd  F  
   2   2   1   2
Cartesian
  2.0046064791197677  1.3353523314397253 -19.3588483374326330
  2.0046064791197677  1.3353523314397253 -16.6126058287490501
  0.2276454524935916  2.3612812585018239 -20.9714544236312292
  0.2276454524935916  2.3612812585018239 -15.0000000000000053
  0.1841530590776131  0.5889038421705082 -25.5153382555128552
  1.9611140857037892  1.6148327692326072 -24.4981765734836756
  0.1841530590776115  2.6407616962947063 -26.5324999375419992
