Cr Se Ti Cl
 1.0000000000000000
     3.2445969815766094    0.0000000000000000    0.0000000000000000
    -1.6222984907883047    2.8099034110876540    0.0000000000000000
     0.0000000000000000    0.0000000000000000   40.3068543035128499
 Cr  Se  Ti  Cl 
   1   2   1   2
Cartesian
  0.2731514218650195  0.9794600099983392 16.5737644427049204
  1.8954499126533244  1.9160944803608904 18.1475288854098444
  1.8954499126533244  1.9160944803608904 15.0000000000000000
  0.2117254586392386  1.2968024277607584 23.7209946127596396
  1.8340239494275428  2.2334368981233097 25.3068543035128499
  1.8340239494275428  2.2334368981233097 22.1351351763454787
