Ti Cl B  P 
 1.0000000000000000
     3.2474257976476633    0.0000000000000000    0.0000000000000000
    -1.6237128988238316    2.8123532376678204    0.0000000000000000
     0.0000000000000000    0.0000000000000000   37.1042840406182961
 Ti  Cl  B   P  
   1   2   1   1
Cartesian
  0.0413810625915651  0.8460770815980820 20.5184243498650858
  1.6650939614153961  1.7835281608206888 22.1042840406182961
  1.6650939614153961  1.7835281608206888 18.9325649134509248
  0.4599223949303513  2.1212442396565057 15.0000000000000000
  2.0836352937541838  1.1837931604338991 15.0000000000000000
