Ge Te Bi O 
 1.0000000000000000
     3.9598889105276895   -0.0000000000000000    0.0000000000000000
    -1.9799444552638448    3.4293643926812587    0.0000000000000000
    -0.0000000000000000    0.0000000000000000  -38.8246941699994892
 Ge  Te  Bi  O  
   1   1   2   2
Cartesian
  2.3960506466218932  1.6693260295421690 -22.2648729360900646
  0.4161061913580491  2.8124474937692550 -23.8246941699994927
  2.4900099546861929  1.3312381230803561 -18.2805652471915536
  2.4900099546861929  1.3312381230803561 -15.1279490437487745
  0.5100654994223479  2.4743595873074420 -18.4085143927414947
  0.5100654994223478  2.4743595873074420 -15.0000000000000036
