Al Te Tl S 
 1.0000000000000000
     4.0863800130594727   -0.0000000000000000    0.0000000000000000
    -2.0431900065297364    3.5389089008264891    0.0000000000000000
     0.0000000000000000    0.0000000000000000   44.4052832517876581
 Al  Te  Tl  S  
   2   2   2   2
Cartesian
  2.2318709682438715  1.3281233874380334 16.2795918494368586
  2.2318709682438715  1.3281233874380334 18.8534102305006570
  0.1886809617141351  2.5077596877135298 15.0000000000000018
  0.1886809617141351  2.5077596877135298 20.1330020799375866
  2.3642140806508136  1.5682979063723155 25.3215234435323673
  2.3642140806508136  1.5682979063723155 28.2074409353225057
  0.3210240741210772  2.7479342066478116 24.1236811270676910
  0.3210240741210771  2.7479342066478116 29.4052832517876581
