W  Se Pb O 
 1.0000000000000000
     3.3606102956202619    0.0000000000000000    0.0000000000000000
    -1.6803051478101310    2.9103738882266788    0.0000000000000000
     0.0000000000000000    0.0000000000000000   39.2990949755167023
 W   Se  Pb  O  
   1   2   1   2
Cartesian
 -0.4447352257222016  1.2801901049965894 16.6792764021964075
  1.2355699220879290  2.2503147344054821 18.3585528043928186
  1.2355699220879290  2.2503147344054821 15.0000000000000000
  0.2304792881635626  0.9201832560150089 23.2404758193720227
  1.9107844359736934  1.8903078854239019 24.2990949755167023
  0.2304792881635626  2.8604325148327949 22.1818566632273431
