Mo S  Sn O 
 1.0000000000000000
     3.2017872663860647    0.0000000000000000    0.0000000000000000
    -1.6008936331930324    2.7728291102038654    0.0000000000000000
     0.0000000000000000    0.0000000000000000   38.9803100877965605
 Mo  S   Sn  O  
   1   2   1   2
Cartesian
 -0.2411185682492007  0.8799405534659499 16.5635563231757601
  1.3597750649438316  1.8042169235339047 18.1271126463515202
  1.3597750649438316  1.8042169235339047 15.0000000000000000
  0.5915893401295425  0.7933772475980092 22.9713477631241467
  2.1924829733225746  1.7176536176659642 23.9803100877965605
  0.5915893401295425  2.6419299877339193 21.9623854384517330
