Ga Te Pb Se
 1.0000000000000000
     4.0647116430802193   -0.0000000000000000    0.0000000000000000
    -2.0323558215401096    3.5201435419658553    0.0000000000000000
     0.0000000000000000    0.0000000000000000   42.3405917047534288
 Ga  Te  Pb  Se 
   2   2   1   2
Cartesian
  2.1969823078684407  1.5352760783569266 16.2730454743835082
  2.1969823078684407  1.5352760783569266 18.7468688976248359
  0.1646264863283317  2.7086572590122113 15.0000000000000036
  0.1646264863283317  2.7086572590122113 20.0199143598030780
  0.0565790433221618  0.7148936368970145 25.6714925482529779
  2.0889348648622716  1.8882748175522999 27.3405917047534359
  0.0565790433221616  3.0616559982075855 24.0023933917525270
