Cr Se Pt O 
 1.0000000000000000
     3.1790056698676850    0.0000000000000000    0.0000000000000000
    -1.5895028349338425    2.7530996688801812    0.0000000000000000
     0.0000000000000000    0.0000000000000000   38.9693113115967193
 Cr  Se  Pt  O  
   1   2   1   2
Cartesian
 -0.5321996741371313  1.1807831438613450 16.5737644427049204
  1.0573031607967112  2.0984830334880717 18.1475288854098409
  1.0573031607967112  2.0984830334880717 14.9999999999999982
  0.5777200097201554  0.7917167029333942 23.0263935341432600
  2.1672228446539976  1.7094165925601215 23.9693113115967265
  0.5777200097201554  2.6271164821868487 22.0834757566897864
