Br Pt Se
 1.0000000000000000
     3.7522109648671886    0.0000194514724014    0.0000000000000000
    -1.8760886298092054    3.2495354021205283    0.0000000000000000
     0.0000000000000002    0.0000000000000000  -39.2873041024384690
 Br  Pt  Se 
   2   3   2
Cartesian
 -0.5327406252271073  2.1299817786583506 -19.3348512724562163
  3.2193434216700410  2.1301429469409499 -15.0000000000000000
  1.3431583776732261  1.0468222002071390 -16.4425489162038794
  1.3432013635856068  3.2131478402712146 -17.8933095280614474
  0.7272792598284413  0.1953283458122982 -22.9774953745410855
  2.6033903598034982  1.2785197808340754 -21.6676866527333409
  0.7272904949113671  2.3616917643834512 -24.2873041024384690
