Sr I  Hg
 1.0000000000000000
     4.5455556963240582   -0.0000000000000011    0.0000000000000000
    -2.2727778468894897    3.9524655910234880    0.0000000000000000
     0.0000000000000034    0.0000000000000000   42.1865080215299599
 Sr  I   Hg 
   1   4   2
Cartesian
 -0.1914064837419137  1.6218909247958146 17.0028850106790053
  2.0813713648442951  2.9393794551369767 19.0057700213581597
  2.0813713648442946  2.9393794551369767 15.0000000000000036
  1.3569701579123787 -0.3484243439082459 21.2622762760332904
  1.3669236333302028  4.8853207830913234 27.1865080215299599
  1.3756828202001152  2.2541055418110041 25.5663957007723681
  1.3537074119394050  2.2788503159654931 22.8829345312861392
