Pd Se Zr Te
 1.0000000000000000
     3.9618075861136850    0.0000000000000000    0.0000000000000000
    -1.9809037930568425    3.4310260144803562    0.0000000000000000
     0.0000000000000000    0.0000000000000000   40.1037559243315300
 Pd  Se  Zr  Te 
   1   2   1   2
Cartesian
  0.2205042700404569  1.1443069507126216 16.1981932105471387
  2.2014080630972992  2.2879822888727399 17.3963864211044736
  2.2014080630972992  2.2879822888727399 14.9999999999999982
  0.2268683846570437  1.4899018224575853 23.2421913622571488
  2.2077721777138866  2.6335771606177034 25.1037559243315371
  2.2077721777138866  2.6335771606177034 21.3806268001829380
