W  Se F  Pt
 1.0000000000000000
     3.3555140060080757    0.0000585085648160    0.0000000000000000
    -1.6777062717132996    2.9061154120543291    0.0000000000000000
    -0.0000000000000013   -0.0000000000000000   40.5710628221938308
 W   Se  F   Pt 
   1   2   2   2
Cartesian
 -0.4778021148135834  1.4442757537013864 16.6792764021964111
  1.1999717986207001  2.4130198967627070 18.3585528043928221
  1.1999717986207006  2.4130198967627070 15.0000000000000000
 -0.6893539405275366  1.5521006848852430 21.7777571659652374
  2.6659360486669748  1.5527991466297046 25.5710628221938308
  0.9882350633929001  0.5837824630443802 24.4321737885408261
  0.9883689243361167  2.5210423260307300 22.9166825354173156
