Hf I  Ga Se
 1.0000000000000000
     3.7987954436032787   -0.0000000000000000    0.0000000000000000
    -1.8993977218016393    3.2898533579410154    0.0000000000000000
     0.0000000000000000    0.0000000000000000   42.5161530234801930
 Hf  I   Ga  Se 
   1   2   2   2
Cartesian
 -0.5759397105346855  1.4247900689310016 16.9476853944779862
  1.3234580112669536  2.5214078549113399 18.8953707810581513
  1.3234580112669536  2.5214078549113399 15.0000000000000036
  2.1366562954432156  1.5198365015921900 23.8635249593716168
  2.1366562954432156  1.5198365015921900 26.3390801691638039
  0.2372585736415765  2.6164542875725285 22.6864521050539913
  0.2372585736415765  2.6164542875725285 27.5161530234801965
