Bi O  Ca Cl
 1.0000000000000000
     4.0569757931089105   -0.0000000000000000    0.0000000000000000
    -2.0284878965544557    3.5134440993708367    0.0000000000000000
     0.0000000000000000    0.0000000000000000   40.1621767792811610
 Bi  O   Ca  Cl 
   2   2   1   2
Cartesian
  2.2423861254887862  1.2785897761269580 15.1279491455499375
  2.2423861254887862  1.2785897761269580 18.2805653489927167
  0.2138982289343307  2.4497378092505699 15.0000000000000000
  0.2138982289343307  2.4497378092505699 18.4085143927414876
  0.8499953488935613  0.1613735000050169 23.7600059628520874
  2.8784832454480158  1.3325215331286286 25.1621767792811610
  0.8499953488935611  2.5036695662522401 22.3578351464230209
