Ti Se Si Se
 1.0000000000000000
     3.5017624397757059   -0.0000000000000001    0.0000000000000000
    -1.7506893531168799    3.0332020535588602    0.0000000000000000
     0.0000000000000012    0.0000000000000021   39.9266565116462573
 Ti  Se  Si  Se 
   1   2   1   2
Cartesian
 -0.4507300985289762  1.4174903083966999 16.6199398271809500
  1.3002150769492009  2.4285576595829870 18.2398796543619568
  1.3002150769492009  2.4285576595829865 15.0000000000000036
  0.5822046571811379  0.8243356626916423 23.4870314826906181
  2.3336733080453831  1.8345904778205033 22.0474034248306978
  0.5823859469893332  2.8457230153320001 24.9266565116462573
