S  Zn Pt Te
 1.0000000000000000
     3.9692189352201384    0.0000000000000000    0.0000000000000000
    -1.9846094664897385    3.4377002023053711    0.0000000000000000
    -0.0000000000000000    0.0000000000000000   39.8024650243735536
 S   Zn  Pt  Te 
   2   2   1   2
Cartesian
  1.1629645965179178  0.6521922332448833 15.0000000000000000
  1.1630361939044744  2.9437924863162919 18.1207426419030746
  1.1628360495058436  0.6522412834057728 17.5814600890093473
  1.1631647561383081  2.9437435668856113 15.5394284044792954
  0.7749498856221129 -0.1094941880049476 23.4152507948200430
  2.7595593536056251  1.0364058794301760 24.8024650243735536
  0.7749498863690001  2.1823059468652999 22.0280365662230153
