Sn S  Hg F 
 1.0000000000000000
     3.7055891998835770   -0.0000000000000000    0.0000000000000000
    -1.8527945999417865    3.2091343830884274    0.0000000000000000
     0.0000000000000001    0.0000000000000000   37.0983534311905174
 Sn  S   Hg  F  
   1   1   1   2
Cartesian
  2.0622221706924311  1.5391448423240510 16.4598471617338120
  0.2094275707506431  2.6088563033535266 14.9999999999999982
  0.5418420499214900  0.3276309640877914 21.0696812788303021
  2.3946366498632692  1.3973424251172668 22.0983534311905174
  0.5418420499214884  2.4670538861467426 20.0410091264701151
