Ge I  Sr Cl
 1.0000000000000000
     4.3816072617610295   -0.0000000000000000    0.0000000000000000
    -2.1908036308805152    3.7945831980914235    0.0000000000000000
     0.0000000000000000    0.0000000000000000   39.3188504471580558
 Ge  I   Sr  Cl 
   1   2   1   2
Cartesian
  0.7753171520462310  1.1370403367150943 22.5740745531768141
  2.9661207829267457  2.4019014027455681 24.3188504471580558
  0.7753171520462308  3.6667624687760423 20.8292986591955618
  0.8023414512202028  1.0391433195942663 16.3963168240702473
  2.9931450821007179  2.3040043856247419 17.7926336481404981
  0.8023414512202028  3.5688654516552174 15.0000000000000000
