Se Zn Tl S  Tl
 1.0000000000000000
     4.0681442786737820    0.0000000000000000    0.0000000000000000
    -2.0340721381729487    3.5232795667897587    0.0000000000000000
     0.0000000000000000    0.0000000000000000   42.3750956917791939
 Se  Zn  Tl  S   Tl 
   2   2   1   2   1
Cartesian
  1.2445257531893625  0.2648922547293768 15.0000000000000000
  1.2446308597030762  2.6136121550497879 18.4133035906909832
  1.2444253710211703  0.2649470443463058 17.6556971816099200
  1.2447312125224044  2.6135573634529519 15.7579816020882397
  0.6530199930009097  3.1955402677294145 26.1782383059476267
  2.6869459381830403  2.0206498960120141 22.0973482796222207
  0.6526934510235949  0.8463864985905030 27.3750956917791939
  0.6525472532306672  3.1960065523438792 23.2942035609336706
