Ge Te Zr Se
 1.0000000000000000
     3.8691458703708221   -0.0000000000000000    0.0000000000000000
    -1.9345729351854111    3.3507786146887799    0.0000000000000000
    -0.0000000000000000    0.0000000000000000  -38.2985390827050480
 Ge  Te  Zr  Se 
   1   1   1   2
Cartesian
  2.3581914139475777  1.4852334076622340 -21.7387178487956199
  0.4236184787621671  2.6021596125584936 -23.2985390827050480
  0.8424137280403003  0.1992773826103816 -16.5806053051320248
  2.7769866632257112  1.3162035875066413 -15.0000000000000000
  0.8424137280403003  2.4331297924029012 -18.1612106102641775
