Ge F  Te Zn
 1.0000000000000000
     4.2898387018573683   -0.0000000000000000    0.0000000000000000
    -2.1449193496921883    3.7156348279250033    0.0000000000000000
     0.0000000000000012    0.0000000000000022   41.0267772142625233
 Ge  F   Te  Zn 
   2   2   2   2
Cartesian
  1.2968146600999968  0.9662204694805955 16.7809067055787082
  1.2968146646712406  3.4433103547639301 17.3739865908562336
  1.2968146600999968  0.9662204694805949 14.9999999999999982
  1.2968146646712406  3.4433103547639305 19.1548933276439897
  1.3009714231852247  0.9298663489441131 22.2670298481151683
  1.3010776129181976  3.4066796271884638 26.0267772142625233
  1.3008383998768391  0.9299520590175828 25.0779883431214401
  1.3012104075019135  3.4065935563400189 23.2161700551200951
