I  Pt Mg Br
 1.0000000000000000
     3.9231193977294350    0.0000237985287992    0.0000000000000000
    -1.9615390801607706    3.3975538638519547    0.0000000000000000
    -0.0000000000000002   -0.0000000000000000   40.6412023243393818
 I   Pt  Mg  Br 
   2   2   1   2
Cartesian
 -0.8312697970181856  1.6574388786604777 15.0000000000000000
  3.0916971915133105  1.6576319909734791 19.3964869774338879
  1.1300580765264741  0.5249465056361114 17.9075952834741159
  1.1301048729927576  2.7899555080648253 16.4880841189940028
  0.8528437778573572  0.1325370163357129 24.1341766759236194
  2.8144103496233890  1.2650708366388983 25.6412023243393818
  0.8528575236599883  2.3975808584132845 22.6271510275078569
