Ca Br Hg Br
 1.0000000000000000
     4.2209712524766898   -0.0000000000000000    0.0000000000000000
    -2.1104856262383453    3.6554683332886322    0.0000000000000000
     0.0000000000000000    0.0000000000000000   39.5459791061640686
 Ca  Br  Hg  Br 
   1   2   1   2
Cartesian
  0.5230683107796102  0.7229852449002012 16.5603729944674427
  2.6335539370179544  1.9414746893297459 18.1207459889348854
  0.5230683107796097  3.1599641337592903 15.0000000000000018
  0.7091649773258251  0.8314248635524921 22.9565715300332656
  2.8196506035641686  2.0499143079820361 24.5459791061640686
  0.7091649773258245  3.2684037524115803 21.3671639539024696
