W  Te Hf S 
 1.0000000000000000
     3.6011289265949742   -0.0000000000000000    0.0000000000000000
    -1.8005644632974871    3.1186691327342349    0.0000000000000000
     0.0000000000000000    0.0000000000000000  -40.2076206955705047
 W   Te  Hf  S  
   1   2   1   2
Cartesian
 -0.7703907482667357  1.4747142047846418 -16.8119622132334641
  1.0301737150307515  2.5142705823627201 -14.9999999999999982
  1.0301737150307515  2.5142705823627201 -18.6239244264669281
  0.7315718760726498  1.0895107511104094 -23.7595163935796485
  2.5321363393701368  2.1290671286884875 -22.3114120915884548
  0.7315718760726498  3.1686235062665657 -25.2076206955705047
