In S  Pb Se
 1.0000000000000000
     3.9568709853669208    0.0000000000000000    0.0000000000000000
    -1.9784354926834604    3.4267507928253171    0.0000000000000000
     0.0000000000000000    0.0000000000000000   42.4995551112328798
 In  S   Pb  Se 
   2   2   1   2
Cartesian
  2.1779527303519184  1.5219195021288490 16.1777227309346614
  2.1779527303519184  1.5219195021288490 18.9966802391880627
  0.1995172376684579  2.6641697664039548 15.0000000000000000
  0.1995172376684579  2.6641697664039548 20.1744029701158212
  0.0440939480928797  0.6551135977882024 25.8304559547324288
  2.0225294407763399  1.7973638620633081 27.4995551112328798
  0.0440939480928795  2.9396141263384141 24.1613567982319708
