Ti Se Ir
 1.0000000000000000
     3.4517040379089305   -0.0000000000000000    0.0000000000000000
    -1.7258520179810786    2.9941773685081294    0.0000000000000000
    -0.0000000000000000    0.0000000000000000   41.6375019598951113
 Ti  Se  Ir 
   1   4   2
Cartesian
 -0.4109757534326521  1.3618365373624455 16.6199398271809464
  1.3148762658462756  2.3598956601984886 18.2398796543619532
  1.3148762658462756  2.3598956601984886 15.0000000000000000
  1.1100506116725057  0.6765435414553110 21.8627582232481963
  1.1097928157448569  2.6718327021570718 26.6375019598951113
  1.1097230252103407  0.6789140791836568 25.2530117541184573
  1.1101205058375765  2.6694601603454657 23.2472793057016140
