Ti Se Pt S 
 1.0000000000000000
     3.5344590179212889    0.0000000000000000    0.0000000000000000
    -1.7672295089606445    3.0609312981548342    0.0000000000000000
     0.0000000000000000    0.0000000000000000   39.5503909171845436
 Ti  Se  Pt  S  
   1   2   1   2
Cartesian
 -0.5294332575523024  1.2097094469878340 16.6199398271809464
  1.2377962514083420  2.2300198797061119 18.2398796543619532
  1.2377962514083420  2.2300198797061119 15.0000000000000000
  0.4699349928651740  0.9708961828393402 23.3183635476840649
  2.2371645018258182  1.9912066155576182 24.5503909171845365
  0.4699349928651739  3.0115170482758966 22.0863361781835934
