F  Pd Sn O 
 1.0000000000000000
     3.2569671563356994   -0.0000000000000000    0.0000000000000000
    -1.6284835772269353    2.8223172803599139    0.0000000000000000
    -0.0000000000000012    0.0000000000000000   39.2926537383091130
 F   Pd  Sn  O  
   2   2   1   2
Cartesian
 -0.5622843605712120  1.5708421331422415 15.0000000000000036
  2.6930312241755270  1.5747638032592746 18.8818537777082369
  1.0652536688701950  0.6327513923665753 17.7492457296891502
  1.0654126972711628  2.5131247514042241 16.1325574662624085
  0.5758526973716156 -0.2068526856793228 23.2836914136366957
  2.2043362758531040  0.7339197411073152 24.2926537383091130
  0.5758526979988918  1.6746921678939533 22.2747290889642855
