Ge Te Hg Cl
 1.0000000000000000
     3.9687244408746110   -0.0000000000000000    0.0000000000000000
    -1.9843622204373057    3.4370161864176008    0.0000000000000000
     0.0000000000000000    0.0000000000000000   37.9768274327839279
 Ge  Te  Hg  Cl 
   1   1   1   2
Cartesian
  2.2568728649516108  1.4549088403725028 16.5598212339094246
  0.2725106445143056  2.6005809025117030 15.0000000000000000
  0.6629281300020180  0.2715695506627523 21.5172231441995834
  2.6472903504393259  1.4172416128019529 22.9768274327839279
  0.6629281300020187  2.5629136749411536 20.0576188556152601
