Ge Te Se Zn
 1.0000000000000000
     4.0093839892681107   -0.0000000000000000    0.0000000000000000
    -2.0046919934701131    3.4723916634307170    0.0000000000000000
     0.0000000000000000    0.0000000000000000   38.7964537962628100
 Ge  Te  Se  Zn 
   1   1   2   2
Cartesian
  2.4867249585878186  1.2184866859153025 16.5598212339094246
  0.4820329643417449  2.3759505737255413 15.0000000000000000
  1.3152448186543153  1.3372486386191953 20.3831502055718303
  1.3153484070204051  3.6520451930798092 23.7964537962628100
  1.3151458864064924  1.3373026368913903 23.0388473871817467
  1.3154473103432789  3.6519911928563040 21.1411318076600665
