Ti Te Zn Br
 1.0000000000000000
     3.7674434633658072    0.0000000000000000    0.0000000000000000
    -1.8837217316829040    3.2627017465964174    0.0000000000000000
     0.0000000000000000    0.0000000000000000   40.3864969783100065
 Ti  Te  Zn  Br 
   1   2   1   2
Cartesian
 -0.5925445324946165  1.3905610556151915 16.7885301883608946
  1.2911771991882868  2.4781283044806646 18.5770603767261022
  1.2911771991882868  2.4781283044806646 15.0000000000000000
  0.4157266582136312  0.9804826433202448 23.9038983729783929
  2.2994483898965337  2.0680498921857171 25.3864969783100136
  0.4157266582136313  3.1556171410511893 22.4212997676467900
