S  Zn Cd Cl
 1.0000000000000000
     3.9111083253837799    0.0000000000000000    0.0000000000000000
    -1.9555541615715593    3.3873749379576785    0.0000000000000000
    -0.0000000000000000    0.0000000000000000   39.9052457273218550
 S   Zn  Cd  Cl 
   2   2   1   2
Cartesian
  1.1486829965676306  0.6439698640956556 15.0000000000000018
  1.1487535457569309  2.9020228670497565 18.1207426419030782
  1.1485563315241218  0.6440181962002378 17.5814600890093473
  1.1488802257993480  2.9019746637615951 15.5394284044792990
  0.7671075343038036 -0.1143216437643211 23.4673743107095589
  2.7226616973691362  1.0148033355549053 24.9052457273218550
  0.7671075350506910  2.1439283148741319 22.0295028940972877
