Hf Se Zr Se
 1.0000000000000000
     3.7837188968798072   -0.0000000000000000    0.0000000000000000
    -1.8918594484399036    3.2767966854771453    0.0000000000000000
     0.0000000000000000    0.0000000000000000   39.6906894147355729
 Hf  Se  Zr  Se 
   1   2   1   2
Cartesian
  0.6205630887948153  0.9239135710042475 16.5758890207771756
  2.5124225372347184  2.0161791328299628 18.1517780415566783
  0.6205630887948151  3.1084446946556779 15.0000000000000000
  0.5693760092615001  0.7330608716758016 23.1100841096035481
  2.4612354577014033  1.8253264335015165 24.6906894147355729
  0.5693760092615001  2.9175919953272316 21.5294788044713954
