Tl S  Cd Br
 1.0000000000000000
     4.0597644834027466   -0.0000000000000000    0.0000000000000000
    -2.0298822417013733    3.5158591760085858    0.0000000000000000
     0.0000000000000000    0.0000000000000000   42.4073466290175602
 Tl  S   Cd  Br 
   2   2   1   2
Cartesian
  2.2943572656839835  1.5909536163002072 16.1978423164646728
  2.2943572656839835  1.5909536163002072 19.0837598082548112
  0.2644750239826101  2.7629066749697357 15.0000000000000000
  0.2644750239826101  2.7629066749697357 20.2816021247199672
  0.0166734257356873  0.4756584499982681 25.8407387783016098
  2.0465556674370609  1.6476115086677963 27.4073466290175602
  0.0166734257356875  2.8195645673373244 24.2741309275856700
