Cr Te Pd S 
 1.0000000000000000
     3.5117812863232611    0.0000000000000000    0.0000000000000000
    -1.7558906431616306    3.0412918064907375    0.0000000000000000
     0.0000000000000000    0.0000000000000000   39.7174894130468630
 Cr  Te  Pd  S  
   1   2   1   2
Cartesian
 -0.4940429900885115  1.2300561571096633 16.7062363127964808
  1.2618476530731189  2.2438200926065752 18.4124726255929616
  1.2618476530731189  2.2438200926065752 14.9999999999999964
  0.3349621436302021  0.9858967045581890 23.4724175796423324
  2.0908527867918325  1.9996606400551016 24.7174894130468630
  0.3349621436302021  3.0134245755520137 22.2273457462378019
