Ti Cl Ni S 
 1.0000000000000000
     3.3163359388354903    0.0000000000000000    0.0000000000000000
    -1.6581679694177451    2.8720311705148509    0.0000000000000000
     0.0000000000000000    0.0000000000000000   39.3805327546800896
 Ti  Cl  Ni  S  
   1   2   1   2
Cartesian
 -0.5005934975085983  1.0980668487815501 16.5858594364141609
  1.1575744719091463  2.0554105722865001 18.1717191271673713
  1.1575744719091463  2.0554105722865001 15.0000000000000018
  0.4661504773672789  0.9381350275790196 23.2050988264548330
  2.1243184467850242  1.8954787510839699 24.3805327546800896
  0.4661504773672789  2.8528224745889204 22.0296648982295764
