Br Cu S  Ti
 1.0000000000000000
     3.9352825202568544   -0.0000000000000000    0.0000000000000000
    -1.9676412578805313    3.4097143396212859    0.0000000000000000
     0.0000000000000000    0.0000000000000000   40.2422326456167667
 Br  Cu  S   Ti 
   2   2   2   2
Cartesian
  1.2530111725964688  0.8287122956876722 15.0000000000000000
  1.2539256598574924  3.1009094564641893 18.6331282326220524
  1.2526652324360827  0.8289391109954680 17.4857902901367517
  1.2542695027984250  3.1006834644840642 16.1476785051133049
  1.1416079047256240  0.9718251813730208 22.0174842662756092
  1.1418199773045374  3.2443688045832157 25.2422326456167667
  1.1415390728286623  0.9718329351693876 24.4989310119812167
  1.1418888367077300  3.2443610543441919 22.7608271849568240
