Zr Cl Se Ir
 1.0000000000000000
     3.4091184412657860   -0.0000000000000000    0.0000000000000000
    -1.7045592196595063    2.9572971599798494    0.0000000000000000
    -0.0000000000000000    0.0000000000000000   41.8245841124215332
 Zr  Cl  Se  Ir 
   1   2   2   2
Cartesian
 -0.4066712035583281  1.3456678564502687 16.7078992199188079
  1.2978880173990268  2.3314335764435516 18.4157984398376016
  1.2978880173990268  2.3314335764435516 15.0000000000000000
  1.0983612611604356  0.6704492094569332 22.0498403757746217
  1.0981066458128406  2.6411617765691284 26.8245841124215332
  1.0980377163150559  0.6727905485390449 25.4400939066448792
  1.0984302930102274  2.6388184580886698 23.4343614582280360
