Mo S  Si S 
 1.0000000000000000
     3.2444344535377572   -0.0000000000000001    0.0000000000000000
    -1.6220364860110528    2.8100595212101775    0.0000000000000000
     0.0000000000000012    0.0000000000000021   39.7511079168605761
 Mo  S   Si  S  
   1   2   1   2
Cartesian
 -0.4440719795345326  1.2766629460196137 16.5635563231757601
  1.1782054941536209  2.2133494530896729 18.1271126463515202
  1.1782054941536209  2.2133494530896729 15.0000000000000018
  2.5220817608261177  0.8996119747312529 23.4254278711392558
  0.9002475381778585  1.8365567277063928 22.0992059633662379
 -0.7222976300344079  2.7736122086544532 24.7511079168605761
