Hf Te Ti I 
 1.0000000000000000
     3.8391271178236912    0.0000000000000000    0.0000000000000000
    -1.9195635589118456    3.3247816123930503    0.0000000000000000
    -0.0000000000000000    0.0000000000000000   41.3238254386307986
 Hf  Te  Ti  I  
   1   2   1   2
Cartesian
  0.1651608793721499  1.3160711579910263 16.8494380278571043
  2.0847244382839953  2.4243316954553764 18.6988761198817635
  2.0847244382839953  2.4243316954553764 14.9999999999999982
  0.2341036009494460  1.4669142338689309 24.5094596537478786
  2.1536671598612913  2.5751747713332813 26.3238254386307986
  2.1536671598612913  2.5751747713332813 22.6950938724902578
