Pb Te Ge Cl
 1.0000000000000000
     4.2781682933463099   -0.0000000000000002    0.0000000000000000
    -2.1390841466731549    3.7050024237040904    0.0000000000000000
     0.0000000000000010    0.0000000000000016   40.5276288717320625
 Pb  Te  Ge  Cl 
   1   1   2   2
Cartesian
  2.4106327530650082  1.4335212022046842 16.6845068820464775
  0.2715486063918540  2.6685220101060478 15.0000000000000018
  1.3840642141866306  0.6798634508184788 22.6657772454901689
  1.3840642179233502  3.1498650666212069 23.3376152474036473
  1.3840642141866306  0.6798634508184783 20.4757636139346637
  1.3840642179233504  3.1498650666212069 25.5276288717320625
