Ga S  Cd F 
 1.0000000000000000
     3.5787180774801084   -0.0000000000000000    0.0000000000000000
    -1.7893590387400520    3.0992607680803861    0.0000000000000000
     0.0000000000000002   -0.0000000000000000   40.6707171825851361
 Ga  S   Cd  F  
   2   2   1   2
Cartesian
  1.9108109223582441  1.4444464345425994 16.0940275853641523
  1.9108109223582441  1.4444464345425994 18.5727461466075034
  0.1214518836181911  2.4775333572360614 14.9999999999999964
  0.1214518836181912  2.4775333572360614 19.6667737319714959
 -0.1862136737118401  0.7983520464988080 24.6535555005559601
  1.6031453650282133  1.8314389691922699 25.6707171825851361
 -0.1862136737118417  2.8645258918857319 23.6363938185268125
