Ca Cl Pd Se
 1.0000000000000000
     3.9734790174399746    0.0000000000000000    0.0000000000000000
    -1.9867395087199873    3.4411337705074483    0.0000000000000000
     0.0000000000000000    0.0000000000000000   39.6175608147567857
 Ca  Cl  Pd  Se 
   1   2   1   2
Cartesian
  0.2436406388160372  1.7730112712610768 16.6160803132927697
  2.2303801475360250  2.9200558614302259 18.2321606265855323
  2.2303801475360250  2.9200558614302259 15.0000000000000000
  0.4408975732575974  1.5484869763608764 23.4193676041994436
  2.4276370819775850  2.6955315665300255 24.6175608147567857
  2.4276370819775850  2.6955315665300255 22.2211743936523050
