Mo Se W  Se
 1.0000000000000000
     3.3193777061628023    0.0000000000000000    0.0000000000000000
    -1.6596888530814011    2.8746654182927043    0.0000000000000000
     0.0000000000000000    0.0000000000000000   40.6945502178191703
 Mo  Se  W   Se 
   1   2   1   2
Cartesian
  0.2418208311663345  1.3794295301884896 16.6690294767632068
  1.9015096842477355  2.3376513362860578 18.3380589535264100
  1.9015096842477355  2.3376513362860578 15.0000000000000000
  0.3770474412986834  1.3311389355473753 24.0152738156227628
  2.0367362943800842  2.2893607416449431 25.6945502178191703
  2.0367362943800842  2.2893607416449431 22.3359974134263553
