Pb Se Hg Cl
 1.0000000000000000
     4.0358887613372794    0.0000000000000000    0.0000000000000000
    -2.0179443806686397    3.4951821941661869    0.0000000000000000
    -0.0000000000000000    0.0000000000000000   37.9192872277997139
 Pb  Se  Hg  Cl 
   1   1   1   2
Cartesian
  2.3984613159528263  1.4320516707431161 16.5482420467417022
  0.3805169352841868  2.5971124021318444 15.0000000000000000
  0.8612891767349882  0.4153864757858265 21.4596829392153694
  2.8792335574036301  1.5804472071745559 22.9192872277997139
  0.8612891767349888  2.7455079385632852 20.0000786506310462
