Pb Se Al Te
 1.0000000000000000
     4.0965448247995848    0.0000000000000000    0.0000000000000000
    -2.0482724123997924    3.5477118860181047    0.0000000000000000
     0.0000000000000000    0.0000000000000000  -40.2318141741004638
 Pb  Se  Al  Te 
   1   1   2   2
Cartesian
  1.9564436104908709  1.8437016762588794 -23.6835721273587652
 -0.0918288019089213  3.0262723049315801 -25.2318141741004638
  2.3472642170626683  1.4635625400049210 -18.8534102305007281
  2.3472642170626683  1.4635625400049210 -16.2795918494369296
  0.2989918046628762  2.6461331686776228 -20.1330020799375866
  0.2989918046628762  2.6461331686776228 -15.0000000000000000
