Pd O  Al N 
 1.0000000000000000
     3.1142073230022804    0.0000000000000000    0.0000000000000000
    -1.5571036615011402    2.6969826543715056    0.0000000000000000
     0.0000000000000000    0.0000000000000000   35.9503894221144478
 Pd  O   Al  N  
   1   2   1   1
Cartesian
  0.5069584171473759  0.3526994181498683 19.9713693032822768
  2.0640620786485160  1.2516936362737034 20.9503894221144478
  0.5069584171473759  2.1506878543975385 18.9923491844501058
  0.7357907241489416  2.0421569060297156 15.0000000000000036
  2.2928943856500821  1.1431626879058805 15.0000000000000000
