Mo Se In O 
 1.0000000000000000
     3.3800148002020878    0.0000000000000000    0.0000000000000000
    -1.6900074001010439    2.9271786821423911    0.0000000000000000
     0.0000000000000000    0.0000000000000000   41.7085032699093787
 Mo  Se  In  O  
   1   2   2   2
Cartesian
 -0.7545498003018623  1.5545068077781787 16.6690294767632068
  0.9354575997991815  2.5302330351589761 18.3380589535264100
  0.9354575997991815  2.5302330351589761 15.0000000000000000
  1.9469328687096610  1.3815829171468181 23.0675684502557630
  1.9469328687096610  1.3815829171468181 25.9178336478770390
  0.2569254686086170  2.3573091445276151 22.2768988252365574
  0.2569254686086170  2.3573091445276151 26.7085032699093787
