F  Pt Ga N 
 1.0000000000000000
     3.3302336168651081    0.0000585085648160    0.0000000000000000
    -1.6650660771418160    2.8842219528389630    0.0000000000000000
    -0.0000000000000012   -0.0000000000000000   37.4813419135531660
 F   Pt  Ga  N  
   2   2   1   1
Cartesian
 -0.9044049723276469  1.8936288478853556 18.6880362573245691
  2.4256063155471717  1.8943224885090648 22.4813419135531660
  0.7605449753691386  0.9326056778575367 21.3424528799001578
  0.7606780825896161  2.8552711814326157 19.8269616267766473
  0.5065681214422583  2.5278084840023634 15.0000000000000000
  2.1716680194445663  1.5664206692443143 15.0000000000000000
