Hf I  Cl Pd
 1.0000000000000000
     3.7207474622042178   -0.0000057074165551    0.0000000000000000
    -1.8603786746068098    3.2222357769923082    0.0000000000000000
    -0.0000000000000001    0.0000000000000000   41.0651688606960761
 Hf  I   Cl  Pd 
   1   2   2   2
Cartesian
 -0.1389624068244838  1.4273864587556540 16.9476853944779791
  1.7214096764427247  2.5014612461420533 18.8953707810581442
  1.7214096764427247  2.5014612461420533 14.9999999999999982
 -0.6862998843711119  1.7733787321543493 22.0048961321431662
  3.0345003268618207  1.7732833117188798 26.0651688606960761
  1.1738533852754838  0.6990805309721777 24.7869651658860164
  1.1738459874087468  2.8472614572238082 23.2811118232189997
