Pb Br Sr Br
 1.0000000000000000
     4.3483575040322515    0.0000000000000000    0.0000000000000000
    -2.1741787520161258    3.7657880632286238    0.0000000000000000
     0.0000000000000000    0.0000000000000000   41.2832264194650946
 Pb  Br  Sr  Br 
   1   2   1   2
Cartesian
  0.2400220151916146  1.4666969920122703 16.8414801415537809
  2.4142007672077401  2.7219596797551451 18.6829602831084465
  2.4142007672077401  2.7219596797551451 14.9999999999999982
  0.3004095979531756  1.6655415015913650 24.4804098199757192
  2.4745883499693013  2.9208041893342398 26.2832264194650946
  2.4745883499693013  2.9208041893342398 22.6775932204863437
