Tl S  Tl S  Zn
 1.0000000000000000
     3.9917958286723798    0.0000000000000000    0.0000000000000000
    -1.9958979132158592    3.4572523655735470    0.0000000000000000
    -0.0000000000000000    0.0000000000000000   42.3407557971341717
 Tl  S   Tl  S   Zn 
   1   2   1   2   2
Cartesian
  0.7385329130826490  3.0313448955929259 19.0808900263254060
  2.7342873769540459  1.8784722836104013 15.0000000000000000
  0.7382124994604671  0.7262148962578066 20.2777474121569732
  0.7380690454040109  3.0318024419090297 16.1968552813114535
  1.2768198319604436  0.3099731479183193 24.2200131552311007
  1.2768918365882567  2.6146070396599641 27.3407557971341788
  1.2766905537737370  0.3100224770554714 26.8014732442404480
  1.2770211300833041  2.6145578419965587 24.7594415597103996
