S  Ti Zn Br
 1.0000000000000000
     3.8580122309416414   -0.0000000000000000    0.0000000000000000
    -1.9290061143518327    3.3419823238140616    0.0000000000000000
     0.0000000000000000    0.0000000000000000   40.0626198565841065
 S   Ti  Zn  Br 
   2   2   1   2
Cartesian
  1.1872492297087280  0.7571229620097022 15.0000000000000000
  1.1874571374647573  2.9845238121666644 18.2247483793411611
  1.1871817493438495  0.7571305617813604 17.4814467457056111
  1.1875246447957748  2.9845162158816843 15.7433429186812184
  0.6925616598329198 -0.1141452902244184 23.5800212512524823
  2.6215677756767359  0.9998488177136020 25.0626198565841065
  0.6925616605789122  2.1138429256516220 22.0974226459208793
