Zr Se Zn Cl
 1.0000000000000000
     3.5973052364776814    0.0000000000000000    0.0000000000000000
    -1.7986526182388409    3.1153577199564593    0.0000000000000000
     0.0000000000000000    0.0000000000000000  -42.2205356569643797
 Zr  Se  Zn  Cl 
   2   2   1   2
Cartesian
  1.9964446948626935  1.2989416377012741 -19.3588483374326294
  1.9964446948626935  1.2989416377012741 -16.6126058287490466
  0.1977920766238527  2.3373942110200936 -20.9714544236312221
  0.1977920766238527  2.3373942110200936 -15.0000000000000000
  0.1858358514603270  0.6176783230986259 -25.8530686683822424
  1.9844884696991671  1.6561308964174453 -24.4856016798001264
  0.1858358514603270  2.6945834697362647 -27.2205356569643797
