Ge I  Hg I 
 1.0000000000000000
     4.3437728120144037    0.0000000000000000    0.0000000000000000
    -2.1718864060072027    3.7618176034726405    0.0000000000000000
     0.0000000000000000    0.0000000000000000   39.9826660513394856
 Ge  I   Hg  I  
   1   2   1   2
Cartesian
  0.6098096072751126  0.7722989256869057 16.7447758939812488
  2.7816960132823145  2.0262381268444520 18.4895517879624904
  0.6098096072751120  3.2801773280019981 15.0000000000000000
  0.5678989845473907  0.9513838487873122 23.2394155354296714
  2.7397853905545935  2.2053230499448593 24.9826660513394856
  0.5678989845473903  3.4592622511024063 21.4961650195198573
