Hg Te Sb Se Sb
 1.0000000000000000
     4.7739790321050029    0.0000000000000000    0.0000000000000000
    -2.3869895160525014    4.1344825815471520    0.0000000000000000
     0.0000000000000000    0.0000000000000000  -37.8545992701480856
 Hg  Te  Sb  Se  Sb 
   1   1   1   2   1
Cartesian
  3.1352706981629668  1.2689186903386021 -22.3418896300179064
  0.7482811821104659  2.6470795508543188 -22.8545992701480856
  0.6330128831723856  3.7027703559535836 -15.2952855367388310
  3.0242501863942119  2.3293617424966362 -18.4869501194425112
  0.6322047802480819  0.9467639370945981 -15.0000000000000000
  0.6364213144014196  3.7076656980545479 -18.1917573341261445
