Zr Te Sn Se
 1.0000000000000000
     3.9146658480319845   -0.0000000000000000    0.0000000000000000
    -1.9573329240159922    3.3902000717230516    0.0000000000000000
     0.0000000000000000    0.0000000000000000   39.1248849387579440
 Zr  Te  Sn  Se 
   1   2   1   1
Cartesian
 -0.6999280473870608  1.3320527878845130 16.8615645620742107
  1.2574048766289316  2.4621194784588631 18.7231291241485991
  1.2574048766289316  2.4621194784588631 15.0000000000000018
  2.1049956390917135  1.3914876717440090 24.1248849387579440
  0.1476627150757214  2.5215543623183594 22.5662642500301196
