I  Zn Se Zr
 1.0000000000000000
     4.2585558083371922    0.0000000000000035    0.0000000000000000
    -2.1278919344705796    3.6894239014571339    0.0000000000000000
     0.0000000000000013    0.0000000000000022   42.0758695593620615
 I   Zn  Se  Zr 
   2   2   2   2
Cartesian
  0.7119546897200941  0.9456741298197741 15.0000000000000000
  0.7014758504406913  3.3944496510713580 20.3033500334364980
  2.8297176815555831  2.1620343943266600 18.8373937388954893
  2.8426252045597158  2.1786155680958292 16.4658492361148348
  0.7213359320510417  0.8674154285728127 23.4164424584037363
  0.7225357741070495  3.3265250894408975 27.0758695593620615
  0.7213338167530881  0.8673789159556751 26.1903384828137362
  0.7225379023272658  3.3265615796785912 24.3021932140895203
