Hf Te Tl S 
 1.0000000000000000
     3.9833916752844174   -0.0000000000000000    0.0000000000000000
    -1.9916958376422087    3.4497183840197589    0.0000000000000000
    -0.0000000000000000    0.0000000000000000   42.7241704445485766
 Hf  Te  Tl  S  
   1   2   2   2
Cartesian
 -0.4103434083388847  1.4468895775698498 16.8494380278571079
  1.5813524293033234  2.5967957055764361 18.6988761198817670
  1.5813524293033234  2.5967957055764361 15.0000000000000000
  2.1628289110518879  1.4203066654663492 23.6404106362932751
  2.1628289110518879  1.4203066654663492 26.5263281280834136
  0.1711330734096793  2.5702127934729355 22.4425683198286023
  0.1711330734096793  2.5702127934729355 27.7241704445485695
