Pb I  Cd
 1.0000000000000000
     4.4516700986558551    0.0008383076656587    0.0000000000000000
    -2.2251030696109790    3.8625144670573448    0.0000000000000000
     0.0000000000000033    0.0000000000000000   42.2463515328125538
 Pb  I   Cd 
   1   4   2
Cartesian
 -0.6322375763276393  1.6992793826353134 17.0310965280492574
  1.5938414662392710  2.9873430767648674 19.0621930560985149
  1.5938414662392706  2.9873430767648674 15.0000000000000000
  1.3055586282916560 -0.4904992646475453 21.3361438779248473
  1.3173143017340223  4.6275285820563150 27.2463515328125467
  1.3226058467409803  2.0549697798911106 25.6347859341895870
  1.3034044643662319  2.0798299602880905 22.9477616411237868
