Ti Br Ge S 
 1.0000000000000000
     3.4801923166499096   -0.0000000000000000    0.0000000000000000
    -1.7400961583249548    3.0139349562742384    0.0000000000000000
     0.0000000000000000    0.0000000000000000  -38.5917614308052919
 Ti  Br  Ge  S  
   1   2   1   1
Cartesian
 -0.0597729129197104  1.4615428103098758 -16.6938534589801648
  1.6803232454052446  2.4661877957346219 -14.9999999999999964
  1.6803232454052446  2.4661877957346219 -18.3877069173080017
  2.1534932488282159  1.4614482796699244 -22.2307287618023466
  0.4133970905032616  2.4660932650946705 -23.5917614308052883
