Cl Cd In S  In
 1.0000000000000000
     3.9257793051428909    0.0012519794577290    0.0000000000000000
    -1.9617964704684674    3.4068155074162672    0.0000000000000000
     0.0000000000000035    0.0000000000000000   43.9994113199218688
 Cl  Cd  In  S   In 
   2   2   1   2   1
Cartesian
  1.1606119812094102 -0.7929930093379616 15.0000000000000000
  1.1729651653951449  3.7270158801901765 20.5111542448488713
  1.1732591704626749  1.4558961493787317 19.0920396605243425
  1.1603757967655337  1.4781250236218841 16.4189511839095843
  0.7049847566740176  3.2074186137299612 27.8246003145354805
  2.6675196267852699  2.0719041701281919 23.8319862395704334
  0.7040436888007584  0.9356344613606876 28.9994113199218759
  0.7047823058876592  3.2076305553086479 25.0067962707939060
