Ga S  Si Se
 1.0000000000000000
     3.5767832579245846   -0.0000000000000001    0.0000000000000000
    -1.7881997621913190    3.0981719878884815    0.0000000000000000
     0.0000000000000013    0.0000000000000022   41.1722241998067418
 Ga  S   Si  Se 
   2   2   1   2
Cartesian
  1.8032964474245659  1.4233342473263644 16.0940275853641523
  1.8032964474245661  1.4233342473263646 18.5727461466075034
  0.0149687740525983  2.4560582432891911 15.0000000000000000
  0.0149687740525984  2.4560582432891911 19.6667737319714995
 -0.1811827020180395  0.8618043239028029 24.7325991708510990
  1.6078075738178668  1.8936983796216849 23.2929711129911823
 -0.1810002676276763  2.9264889581738656 26.1722241998067418
