Sn F  Sb Se Sb
 1.0000000000000000
     4.8890712654858675   -0.0000000000000000    0.0000000000000000
    -2.4445356327429337    4.2341553794313800    0.0000000000000000
     0.0000000000000013    0.0000000000000022   41.5705715588151463
 Sn  F   Sb  Se  Sb 
   2   2   1   2   1
Cartesian
  1.4434511866994606  0.3078465551072995 16.9573065799956453
  1.4434511899803426  3.1306168080615522 17.5124529325828640
  1.4434511866994604  0.3078465551072994 15.0000000000000000
  1.4434511899803428  3.1306168080615531 19.4697595286346541
  0.7313889992345802  3.5856099496311522 26.2752860220763118
  3.1802748258203826  2.1790916358812296 23.0836214393726280
  0.7305614143708432  0.7631626000543567 26.5705715588151392
  0.7348796017425068  3.5906233070905511 23.3788142246889947
