Al Te Al I  Cu
 1.0000000000000000
     4.1546428039604537   -0.0000000000000000    0.0000000000000000
    -2.0773214036243228    3.5979403827858043    0.0000000000000000
     0.0000000000000000    0.0000000000000000   42.8575047607019499
 Al  Te  Al  I   Cu 
   1   2   1   2   2
Cartesian
  0.7128691923538703  3.2209746820445107 18.8314022027447159
  2.7902350940579232  2.0216652359494751 15.0000000000000000
  0.7128438407513870  0.8223146341693195 20.1000459107870029
  0.7128883474004627  3.2209455694653211 16.2686119692352200
  1.1951544420320928  0.0843805242000542 24.0017018300619434
  1.1951544201628148  2.4830074580503920 27.8575047607019428
  1.1951544420320928  0.0843805242000545 26.6230008618219394
  1.1951544201628148  2.4830074580503916 25.2388009845419425
