Pb Se Mg I 
 1.0000000000000000
     4.1425754863488482    0.0000000000000000    0.0000000000000000
    -2.0712877431744245    3.5875756082727737    0.0000000000000000
    -0.0000000000000000    0.0000000000000000   38.3360117693913764
 Pb  Se  Mg  I  
   1   1   1   2
Cartesian
  2.3180365225594848  1.7106677248125790 16.5482420467417022
  0.2467487793850603  2.9065262609035027 15.0000000000000000
  0.5032045589648584  0.2578559081333054 21.6616941127235094
  2.5744923021392814  1.4537144442242307 23.3360117693913729
  0.5032045589648582  2.6495729803151562 19.9873764560556424
