Se Hf I  Zn
 1.0000000000000000
     4.2286162694931058    0.0000000000000035    0.0000000000000000
    -2.1129221650656387    3.6635924717517110    0.0000000000000000
     0.0000000000000013    0.0000000000000022   42.2781995346447914
 Se  Hf  I   Zn 
   2   2   2   2
Cartesian
  0.9329496566095671  0.7634538820745077 14.9999999999999982
  0.9341352462197668  3.2052816301860574 18.6912765295358625
  0.9330103876687964  0.7633871219521596 17.7686483511876077
  0.9340745896750672  3.2053484423064913 15.9230671053787329
  0.5812170940430669  0.9495218001167461 21.9748495012082898
  0.5708183930050319  3.3811522671725820 27.2781995346447843
  2.6840944838771543  2.1573657418837406 25.8122432401037756
  2.6969113050532330  2.1738308228871843 23.4406987373231246
