Mo S  F  Pd
 1.0000000000000000
     3.2392463546342274   -0.0000000000000000    0.0000000000000000
    -1.6196231763761992    2.8069706159110126    0.0000000000000000
    -0.0000000000000012    0.0000000000000000   40.3416617773539912
 Mo  S   F   Pd 
   1   2   2   2
Cartesian
 -0.3024317951222155  1.3839301396499064 16.5635563231757601
  1.3171913825085364  2.3195870116202437 18.1271126463515202
  1.3171913825085364  2.3195870116202437 15.0000000000000000
 -0.7844543092260383  1.6315131887217249 21.4598079996457543
  2.4531494598394250  1.6354135343208580 25.3416617773539912
  0.8342284639900261  0.6985234207960958 24.2090537293349044
  0.8343866271382866  2.5686720403331149 22.5923654659081592
