I  Zn Mg I 
 1.0000000000000000
     4.1994932684922377    0.0000000000000035    0.0000000000000000
    -2.0983606657834981    3.6376673389367600    0.0000000000000000
     0.0000000000000013    0.0000000000000023   42.6098523402317468
 I   Zn  Mg  I  
   2   2   1   2
Cartesian
  0.6046571807536743  0.8530672291593224 15.0000000000000000
  0.5943364315577404  3.2674904486019529 20.3033500334364980
  2.6930549416227287  2.0523639553581310 18.8373937388954893
  2.7057835346666157  2.0687125224711478 16.4658492361148348
  0.0474325334158182  1.0448342143866716 25.9355346835638869
  2.1476411571494767  2.2573899940322617 27.6098523402317468
  0.0483565123908986  3.4699457736778481 24.2612170268960199
