Mo Te Pb O 
 1.0000000000000000
     3.5701530978857141   -0.0000000000000000    0.0000000000000000
    -1.7850765489428571    3.0918432781687399    0.0000000000000000
     0.0000000000000000    0.0000000000000000  -38.5003333008978217
 Mo  Te  Pb  O  
   1   2   1   1
Cartesian
 -0.1169539499009435  1.2725822410507619 -16.8050999999999995
  1.6681225990419133  2.3031966671070085 -15.0000000000000000
  1.6681225990419133  2.3031966671070085 -18.6101999999999990
  2.0404792032316941  1.7690193491086157 -22.5574928989268031
  0.2554026542888372  2.7996337751648621 -23.5003333008978181
