Al Te Al Se Zn
 1.0000000000000000
     4.1038052616785468   -0.0000000000000000    0.0000000000000000
    -2.0519026325124088    3.5540770569679552    0.0000000000000000
     0.0000000000000000    0.0000000000000000   42.3930789826765491
 Al  Te  Al  Se  Zn 
   1   2   1   2   2
Cartesian
  0.6233421969273872  3.4598111616175631 18.8314022027447159
  2.6752887829939747  2.2751227751827097 15.0000000000000000
  0.6233171555680175  1.0903937348012402 20.1000459107870029
  0.6233611175866844  3.4597824039565790 16.2686119692352200
  1.3685149470014777  0.4626456777482259 23.9797753919855765
  1.3686209729712582  2.8318960743549018 27.3930789826765562
  1.3684136848922781  0.4627009462890260 26.6354725735954929
  1.3687222054743240  2.8318408038168879 24.7377569940738127
