Pt Se Sn S 
 1.0000000000000000
     3.7221081206994771   -0.0000000000000000    0.0000000000000000
    -1.8610540603497385    3.2234401881581025    0.0000000000000000
     0.0000000000000000    0.0000000000000000   39.0035467980362256
 Pt  Se  Sn  S  
   1   2   1   2
Cartesian
  0.5531166878823055  0.8019246905131024 16.3098087278973836
  2.4141707482320443  1.8764047532324701 17.6196174497051281
  0.5531166878823054  2.9508848159518379 14.9999999999999982
  0.6012880689348857  0.7064963017021965 22.5259753952518018
  2.4623421292846244  1.7809763644215639 24.0035467980362256
  0.6012880689348857  2.8554564271409313 21.0484039924673780
