S  Cd Se Hf
 1.0000000000000000
     4.2905557911130652   -0.0000000000000000    0.0000000000000000
    -2.1452778931056988    3.7178999496692948    0.0000000000000000
     0.0000000000000000    0.0000000000000000   40.4943621121488633
 S   Cd  Se  Hf 
   2   2   2   2
Cartesian
  1.4296956041125750  0.9061208540761916 15.0000000000000000
  1.4300133580932208  3.3834942813589470 18.2374084038473541
  1.4293254670876454  0.9061909544691868 17.8133498455626729
  1.4303837204560090  3.3834242033839832 15.4239508926595690
  1.1443877400884177  0.8891832080805464 21.8030855826129972
  1.1446534012607963  3.3672075330579996 25.4943621121488633
  1.1444493863441039  0.8891154583356083 24.5717339338006084
  1.1445918305911476  3.3672753355718199 22.7261526879917319
