Se Hf Hg Br
 1.0000000000000000
     4.2044249407899441   -0.0000000000000000    0.0000000000000000
    -2.1022124691766786    3.6418426811427382    0.0000000000000000
     0.0000000000000000    0.0000000000000000   40.8080453181695333
 Se  Hf  Hg  Br 
   2   2   1   2
Cartesian
  1.1447861715281931  0.7528151440475630 15.0000000000000000
  1.1450464988912015  3.1801463992674739 18.6912765295358625
  1.1448465802648753  0.7527487802626058 17.7686483511876077
  1.1449861642232031  3.1802128147418176 15.9230671053787329
  0.8282267020406195  0.1275723183606842 24.2186377420387302
  2.9304391728416879  1.3415198787415969 25.8080453181695333
  0.8282267028528147  2.5554674391225096 22.6292301659079342
