Br Hg Ge I 
 1.0000000000000000
     4.2398575054785494    0.0010674728082233    0.0000000000000000
    -2.1189966747744453    3.6783220585670220    0.0000000000000000
     0.0000000000000035    0.0000000000000000   42.6504333596670975
 Br  Hg  Ge  I  
   2   2   1   2
Cartesian
  1.4638506827512441 -0.0800713991168028 21.8807810865061150
  1.4745998352077307  4.8023661136905043 27.6504333596670975
  1.4791759832057494  2.3472117058517181 26.0986727038270558
  1.4598382739871005  2.3747596230939978 23.4320503806133260
  0.6809217930353343  0.3384957570281478 16.7447758939812488
  2.8011612384295530  1.5653147584226368 18.4895517879624940
  0.6815431783452205  2.7910662870089022 15.0000000000000000
