Ti I  Hg F 
 1.0000000000000000
     3.7140303407481357   -0.0000000000000000    0.0000000000000000
    -1.8570151703740660    3.2164446255140584    0.0000000000000000
     0.0000000000000002    0.0000000000000000   39.3136770301699272
 Ti  I   Hg  F  
   1   2   1   2
Cartesian
  0.0107224090846452  0.9977976821911763 16.8143657812576208
  1.8677375794587130  2.0699458906958625 18.6287315661405444
  1.8677375794587130  2.0699458906958625 15.0000000000000018
  0.4736800692773174  0.8748237563187692 23.2850048778097118
  2.3306952396513756  1.9469719648234549 24.3136770301699272
  0.4736800692773157  3.0191201733281408 22.2563327254495249
