Sn Te Se Zn
 1.0000000000000000
     4.1240452648197712   -0.0000000000000000    0.0000000000000000
    -2.0620226312459433    3.5716912408887875    0.0000000000000000
    -0.0000000000000000    0.0000000000000000  -38.7131549372885075
 Sn  Te  Se  Zn 
   1   1   2   2
Cartesian
  2.5038986581106055  1.9221985575479670 -22.0269943867238673
  0.4418760260887002  3.1127623045108956 -23.7131549372885075
  1.3748597998686714  0.6330678703798852 -18.4133035906909797
  1.3749663506562333  3.0140603906297496 -14.9999999999999964
  1.3747580383339153  0.6331234128343419 -15.7576064090810597
  1.3750680824388379  3.0140048461681808 -17.6553219886027399
