Ge I  Mg I 
 1.0000000000000000
     4.2539026327843192    0.0000000000000000    0.0000000000000000
    -2.1269513163921596    3.6839877452167293    0.0000000000000000
     0.0000000000000000    0.0000000000000000   39.9433655117802289
 Ge  I   Mg  I  
   1   2   1   2
Cartesian
  0.5802162773382724  0.7123443419313015 16.7447758939812488
  2.7071675937304320  1.9403402570035442 18.4895517879624904
  0.5802162773382725  3.1683361720757870 14.9999999999999982
  0.6403814418716516  0.9287358754025713 23.2690478551123689
  2.7673327582638096  2.1567317904748151 24.9433655117802289
  0.6403814418716515  3.3847277055470597 21.5947301984445019
