Pb Br Cl Ag
 1.0000000000000000
     4.3540810382049999    0.0000000000000000    0.0000000000000000
    -2.1770405178457439    3.7788154399266456    0.0000000000000000
    -0.0000000000000000    0.0000000000000000   40.6224640724798007
 Pb  Br  Cl  Ag 
   1   2   2   2
Cartesian
 -0.5358241852484786  1.6925532274789101 16.8414801415537809
  1.6412163342729404  2.9521583741211255 18.6829602831084465
  1.6412163342729404  2.9521583741211255 15.0000000000000000
  1.2091839413563268  0.7896247040483101 22.3356075307612016
  1.2047196961319016  3.3036432801863129 25.6224640724798007
  1.2046608859637657  0.7917649268530945 25.3131097230935396
  1.2092781939141410  3.3014844937282528 22.6436559910974680
