Sn Se Pb Se
 1.0000000000000000
     3.9530084360820799   -0.0000000000000000    0.0000000000000000
    -1.9765042180410399    3.4234057270212754    0.0000000000000000
     0.0000000000000000    0.0000000000000000   38.4671456433474361
 Sn  Se  Pb  Se 
   1   1   1   2
Cartesian
  2.1536116803175442  1.2675167491956527 16.5586206887278209
  0.1771074622765047  2.4086519915360776 15.0000000000000000
  0.8394994022840232  0.2192102417844378 21.7980464868469888
  2.8160036203250627  1.3603454841248632 23.4671456433474432
  0.8394994022840230  2.5014807264652887 20.1289473303465343
