Pb S  Zn
 1.0000000000000000
     3.9358652702326022   -0.0000000000000000    0.0000000000000000
    -1.9679326339959706    3.4088150811168494    0.0000000000000000
    -0.0000000000000000    0.0000000000000000   38.4660979659284337
 Pb  S   Zn 
   1   3   2
Cartesian
  2.2969842054776621  1.1950147984537158 16.4391638847389423
  0.3290515707348046  2.3312864921593319 15.0000000000000000
  1.4447984015523949  1.3151513630807949 20.3453553240253591
  1.4448693973066467  3.5874965481910053 23.4660979659284337
  1.4446709347311710  1.3152000010999159 22.9268154130347064
  1.4449968792217205  3.5874480398036388 20.8847837285046545
