Zr Br Ge S 
 1.0000000000000000
     3.5029239482697108   -0.0000000000000000    0.0000000000000000
    -1.7514619741348554    3.0336211267264561    0.0000000000000000
    -0.0000000000000000    0.0000000000000000   40.2845947886144202
 Zr  Br  Ge  S  
   1   2   1   2
Cartesian
 -0.4951726000470273  1.1831022282639694 16.8261924305408073
  1.2562893740878278  2.1943092705061216 18.6523848530272502
  1.2562893740878278  2.1943092705061216 15.0000000000000000
  0.4293695279930997  0.9385192267573574 23.8875856627779228
  2.1808315021279552  1.9497262689995094 25.2845947886144202
  0.4293695279930997  2.9609333112416611 22.4905765369412407
