Mo Te Al S 
 1.0000000000000000
     3.5656987617994638    0.0000000000000000    0.0000000000000000
    -1.7828493808997319    3.0879857099610533    0.0000000000000000
     0.0000000000000000    0.0000000000000000   42.1791513912829004
 Mo  Te  Al  S  
   1   2   2   2
Cartesian
 -0.5353007815844983  1.4355321946198791 16.8050999999999995
  1.2475485993152333  2.4648607646068967 18.6101999999999990
  1.2475485993152333  2.4648607646068967 15.0000000000000000
  1.8918037429411458  1.3202343447311073 23.5118032177199652
  1.8918037429411458  1.3202343447311073 26.1099707658400177
  0.1089543620414141  2.3495629147181245 22.4426225922770612
  0.1089543620414141  2.3495629147181245 27.1791513912829004
