Ti Br Ti Se
 1.0000000000000000
     3.4836648724197965    0.0000000000000000    0.0000000000000000
    -1.7418324362098982    3.0169422777870190    0.0000000000000000
     0.0000000000000000    0.0000000000000000   40.6199961147587985
 Ti  Br  Ti  Se 
   1   2   1   2
Cartesian
  0.1686417131694445  1.1632228904167603 16.6938534583278368
  1.9104741493793429  2.1688703163457665 18.3877069173080017
  1.9104741493793429  2.1688703163457665 14.9999999999999982
  0.2574282713991550  1.3800686385962817 24.0000562875777987
  1.9992607076090532  2.3857160645252882 25.6199961147588056
  1.9992607076090532  2.3857160645252882 22.3801164603968559
