Se Hf Tl Se Tl
 1.0000000000000000
     4.2473716787091842   -0.0000000000000000    0.0000000000000000
    -2.1236858381362991    3.6790356471904726    0.0000000000000000
     0.0000000000000000    0.0000000000000000   42.6651739419367928
 Se  Hf  Tl  Se  Tl 
   2   2   1   2   1
Cartesian
  1.1788899130091703  0.1717815607402540 15.0000000000000000
  1.1791528995173213  2.6239023680815294 18.6912765295358625
  1.1789509388000798  0.1717145192033408 17.7686483511876077
  1.1790919485516813  2.6239694618357166 15.9230671053787329
  0.8098567271012995  3.0776583978502194 26.3810613455075824
  2.9333932131550102  1.8507620640984415 22.2022613517793630
  0.8097520394792197  0.6244760037817689 27.6651739419367999
  0.8096026821569032  3.0780782326650873 23.4863706048287995
