Ga Se Cd Cl
 1.0000000000000000
     3.8620176037796199   -0.0000000000000000    0.0000000000000000
    -1.9310088018898099    3.3446053547358554    0.0000000000000000
     0.0000000000000000    0.0000000000000000   41.6771580795131342
 Ga  Se  Cd  Cl 
   2   2   1   2
Cartesian
  2.1461504924131987  1.5024740644386430 16.1770728543176290
  2.1461504924131987  1.5024740644386430 18.6526280641098126
  0.2151416905233885  2.6173425160172616 15.0000000000000000
  0.2151416905233885  2.6173425160172616 19.8297009184262052
 -0.0984254612587893  0.7449212061008512 25.2392866629008488
  1.8325833406310204  1.8597896576794701 26.6771580795131413
 -0.0984254612587891  2.9746581092580890 23.8014152462885740
