I  Cd Se Hf
 1.0000000000000000
     4.3332542022136895    0.0008383076656587    0.0000000000000000
    -2.1658951201716032    3.7606671666402844    0.0000000000000000
     0.0000000000000033    0.0000000000000000   42.4290585674836862
 I   Cd  Se  Hf 
   2   2   2   2
Cartesian
  1.2216573611176946 -0.2040165243732467 15.0000000000000000
  1.2331261284989541  4.7790731732609135 20.9102076548876994
  1.2382639490025724  2.2743406155293480 19.2986420562647361
  1.2195734550798136  2.2985452551205765 16.6116177631989359
  1.1613979997381292  0.8853723962605158 23.7377820379478273
  1.1621541770041663  3.3921810004785091 27.4290585674836933
  1.1614602461415695  0.8853038715930155 26.5064303891354385
  1.1620920069493634  3.3922495785426121 24.6608491433265620
