Sr Cl I  Cu
 1.0000000000000000
     4.2006753552617395    0.0000000000000000    0.0000000000000000
    -2.1003376764378885    3.6378915686415825    0.0000000000000000
     0.0000000000000000    0.0000000000000000   40.4970226719917719
 Sr  Cl  I   Cu 
   1   2   2   2
Cartesian
 -0.2165818726449602  1.6946671314751525 16.6559757380194853
  1.8837558053835701  2.9072976543556797 18.3119514760389706
  1.8837558053835701  2.9072976543556797 15.0000000000000018
  1.1986308414959541  0.7979878356411875 21.6412197413517724
  1.1986308212878987  3.2232488935285479 25.4970226719917719
  1.1986308414959543  0.7979878356411878 24.2625187731117684
  1.1986308212878984  3.2232488935285479 22.8783188958317680
