Mg Cl Ni Se
 1.0000000000000000
     3.6073366982211050    0.0000000000000000    0.0000000000000000
    -1.8036683491105525    3.1240452206633558    0.0000000000000000
     0.0000000000000000    0.0000000000000000   38.6672340028283372
 Mg  Cl  Ni  Se 
   1   2   1   2
Cartesian
  0.5703457936254752  0.7277388454235333 16.3729058647441263
  2.3740141427360277  1.7690872523113188 17.7458117294882634
  0.5703457936254759  2.8104356591991042 14.9999999999999964
  0.7682999031927418  0.9731884167261622 22.4218930588115271
  2.5719682523032938  2.0145368236139474 23.6672340028283372
  0.7682999031927417  3.0558852305017328 21.1765521153333722
