In Te Ca Br
 1.0000000000000000
     4.3342854864395637    0.0000000000000000    0.0000000000000000
    -2.1671427432197823    3.7536013385108542    0.0000000000000000
    -0.0000000000000000    0.0000000000000000   36.4439792552315183
 In  Te  Ca  Br 
   2   2   1   2
Cartesian
  2.4332598084097441  1.7087025406999010 16.3809543382022582
  2.4332598084097441  1.7087025406999010 19.1931420891205420
  0.2661170651899620  2.9599029868701852 15.0000000000000000
  0.2661170651899620  2.9599029868701852 20.5740964273085289
  0.0796706137586344  0.7612261009878434 19.8836062607640756
  2.2468133569784152  2.0124265471581286 21.4439792552315112
  0.0796706137586338  3.2636269933284141 18.3232332662966328
