Hf Te Cd Br
 1.0000000000000000
     3.9857032829139452    0.0000000000000000    0.0000000000000000
    -1.9928516414569728    3.4517202949505119    0.0000000000000000
    -0.0000000000000000    0.0000000000000000   40.5892489889868529
 Hf  Te  Cd  Br 
   1   2   1   2
Cartesian
 -0.3333866493354767  1.2348121737102771 16.8494380278571079
  1.6594649921214959  2.3853856053604479 18.6988761198817670
  1.6594649921214959  2.3853856053604479 15.0000000000000000
  0.5409592808123875  0.8824041191729182 24.0226411382709024
  2.5338109222693599  2.0329775508230883 25.5892489889868529
  0.5409592808123876  3.1835509824732586 22.4560332875549662
