Sr Cl S  Zr
 1.0000000000000000
     4.2098432026467236    0.0000000000000000    0.0000000000000000
    -2.1049216001251434    3.6463328934821213    0.0000000000000000
    -0.0000000000000000    0.0000000000000000   39.9858026505686155
 Sr  Cl  S   Zr 
   1   2   2   2
Cartesian
 -0.5010433845822990  1.6959702104864349 16.6559757380194853
  1.6038782171404693  2.9114145083138085 18.3119514760389706
  1.6038782171404693  2.9114145083138085 15.0000000000000018
  1.1704883320051420  0.7635708272706756 21.6579409344569953
  1.1707745108788976  3.1940018131675743 24.9858026505686155
  1.1705587861954028  0.7634880174924774 24.2817495371987135
  1.1707040456570699  3.1940846259187525 22.3620320541594637
