Cr Se W  S 
 1.0000000000000000
     3.1980560602658992    0.0000000000000000    0.0000000000000000
    -1.5990280301329496    2.7695977909170466    0.0000000000000000
     0.0000000000000000    0.0000000000000000   40.2846916156783976
 Cr  Se  W   S  
   1   2   1   2
Cartesian
  0.2113885358026584  1.1222238946117398 16.5737644427049204
  1.8104165659356080  2.0454231582507556 18.1475288854098409
  1.8104165659356080  2.0454231582507556 14.9999999999999964
  0.3482263055696859  1.3330205174687400 23.7118941776922121
  1.9472543357026353  2.2562197811077556 25.2846916156783976
  1.9472543357026353  2.2562197811077556 22.1390967397060265
