Tl S  Zn I 
 1.0000000000000000
     4.0786738522485440   -0.0000000000000000    0.0000000000000000
    -2.0393369261242720    3.5322351697985761    0.0000000000000000
     0.0000000000000000    0.0000000000000000   36.3100993373353589
 Tl  S   Zn  I  
   2   2   1   2
Cartesian
  2.2920599089271256  1.6971938439310130 17.2263395290800680
  2.2920599089271256  1.6971938439310130 20.1122570208702065
  0.2527229828028535  2.8746055671972051 16.0284972126153917
  0.2527229828028534  2.8746055671972051 21.3100993373353589
 -0.0615908266343965  0.7260665556414908 16.6274057685123893
  1.9777460994898748  1.9034782789076827 18.2548115370247750
 -0.0615908266343969  3.0808900021738750 15.0000000000000036
