Ge S  Ge S 
 1.0000000000000000
     3.4659496569634567   -0.0000000000000000    0.0000000000000000
    -1.7329748284817283    3.0016004511683136    0.0000000000000000
    -0.0000000000000000    0.0000000000000000   37.8031779979691080
 Ge  S   Ge  S  
   1   1   1   2
Cartesian
  1.9002762000071920  1.0295586891073154 16.3610326690029417
  0.1673013715254638  2.0300921728300865 15.0000000000000000
  0.7316095770336933  0.1795610793557590 21.4061688721326142
  2.4645844055154220  1.1800945630785300 22.8031779979691080
  0.7316095770336933  2.1806280468013011 20.0091597462959285
