Ti I  Br Pt
 1.0000000000000000
     3.7625427449421567    0.0000194514724014    0.0000000000000000
    -1.8812545198466892    3.2584829861317641    0.0000000000000000
    -0.0000000000000002   -0.0000000000000000   41.2266161654445398
 Ti  I   Br  Pt 
   1   2   2   2
Cartesian
 -0.3838249024502172  1.4694296368119806 16.8143657812576208
  1.4974520875623241  2.5556035998375028 18.6287315661405444
  1.4974520875623241  2.5556035998375028 15.0000000000000000
 -0.6796103437096124  1.7701451123725005 21.8917648929883200
  3.0828051337895781  1.7703066708724695 26.2266161654445398
  1.2014539961509370  0.6840030400777019 24.7840672492406604
  1.2014970694903346  2.8562936321261434 23.3333066373830924
