Hf I  Zr S 
 1.0000000000000000
     3.7277134568611290   -0.0000000000000000    0.0000000000000000
    -1.8638567284305645    3.2282945516708446    0.0000000000000000
    -0.0000000000000000    0.0000000000000000   40.5350340495235173
 Hf  I   Zr  S  
   1   2   1   2
Cartesian
 -0.3503097843607350  1.1518638419599929 16.9476853944779791
  1.5135469440698293  2.2279620258502741 18.8953707810581477
  1.5135469440698293  2.2279620258502741 15.0000000000000000
  0.4028574084835221  0.9252319395936828 24.0891516067794527
  2.2667141369140862  2.0013301234839642 25.5350340495235173
  0.4028574084835220  3.0774283073742454 22.6432691640353312
