Br Pt Sn Se
 1.0000000000000000
     3.8105013725135848    0.0000194514724014    0.0000000000000000
    -1.9052338336324035    3.3000163759392578    0.0000000000000000
    -0.0000000000000002   -0.0000000000000000   40.6866829149294915
 Br  Pt  Sn  Se 
   2   2   1   2
Cartesian
 -0.7475700391298330  2.0146661965027706 15.0000000000000036
  3.0628024437380459  2.0148295663352842 19.3348512724562198
  1.1574710472118106  0.9146798195053156 17.8923023562523404
  1.1575145263747655  3.1146588552317978 16.4415417443947725
  0.6595346095431940  0.2595996485514082 24.0937518953552896
  2.5647909133414495  1.3596180748460949 25.6866829149294915
  0.6595458446261199  2.4596170496683807 22.5008208757810202
