Hf Br In O 
 1.0000000000000000
     3.4702351919496182    0.0000000000000000    0.0000000000000000
    -1.7351175959748091    3.0053118333351367    0.0000000000000000
     0.0000000000000000    0.0000000000000000   42.0076696030220162
 Hf  Br  In  O  
   1   2   2   2
Cartesian
 -0.5999326630403140  1.4431579265894654 16.8486980501143790
  1.1351849329344950  2.4449285377011778 18.6973960898101055
  1.1351849329344950  2.4449285377011778 15.0000000000000000
  1.8959632214517101  1.3387652232059570 23.3667347833684005
  1.8959632214517101  1.3387652232059570 26.2169999809896765
  0.1608456254769011  2.3405358343176692 22.5760651583491949
  0.1608456254769011  2.3405358343176692 27.0076696030220162
