Zr Te Zr Se
 1.0000000000000000
     3.8586800244738564    0.0000000000000000    0.0000000000000000
    -1.9293400122369282    3.3417149262699191    0.0000000000000000
    -0.0000000000000000    0.0000000000000000   40.7213354611514688
 Zr  Te  Zr  Se 
   1   2   1   2
Cartesian
 -0.4412364809432890  1.3189953104435013 16.8615645620742072
  1.4881035312936395  2.4329002858668076 18.7231291241485991
  1.4881035312936395  2.4329002858668076 15.0000000000000000
  0.5786784198608557  0.8796338012461358 24.1407301560194405
  2.5080184320977836  1.9935387766694419 25.7213354611514688
  0.5786784198608557  3.1074437520927480 22.5601248508872914
