Zr Te Ru Br
 1.0000000000000000
     3.7645411910763329   -0.0000000000000000    0.0000000000000000
    -1.8822705955381669    3.2601883050650327    0.0000000000000000
    -0.0000000000000000    0.0000000000000000  -42.4400461963140074
 Zr  Te  Ru  Br 
   2   2   1   2
Cartesian
  2.1925470939087468  1.3949241263590544 -19.4970846171610717
  2.1925470939087468  1.3949241263590544 -16.8181936022182441
  0.3102764983705803  2.4816535613807318 -21.3152780539108946
  0.3102764983705804  2.4816535613807318 -15.0000000000000018
  0.1982820988570283  0.5682908127253501 -26.1231970423644100
  2.0805526943951942  1.6550202477470279 -24.8063478884148090
  0.1982820988570281  2.7417496827687060 -27.4400461963140145
