Br Ag Cd I 
 1.0000000000000000
     4.3792014009804134   -0.0000000000000000    0.0000000000000000
    -2.1896006992238131    3.7949271540781311    0.0000000000000000
     0.0000000000000000    0.0000000000000000   41.1779545686730089
 Br  Ag  Cd  I  
   2   2   1   2
Cartesian
  1.2755714657493140  0.9143535719826612 15.0000000000000000
  1.2783839560938923  3.4416792770593476 18.8414998721338058
  1.2744492947577930  0.9151267803284265 17.8250159142190121
  1.2795122779092960  3.4408968036894922 16.0173027462489586
  0.7161122700394318  0.2004561641900212 24.4574381468950968
  2.9057129709517691  1.4654318822160648 26.1779545686730017
  0.7161122708836942  2.7304076002421085 22.7369217251171811
