Ge Se Zn Cl
 1.0000000000000000
     3.6325454650414102    0.0000000000000000    0.0000000000000000
    -1.8162727325207051    3.1458766531278179    0.0000000000000000
    -0.0000000000000000    0.0000000000000000   37.8532842035927644
 Ge  Se  Zn  Cl 
   1   1   1   2
Cartesian
  2.0349963234774671  1.1858467186166257 16.4473597337136113
  0.2187235909567622  2.2344722696592321 15.0000000000000000
  0.7398430831717718  0.0109026749290760 21.4858172150106448
  2.5561158156924764  1.0595282259716818 22.8532842035927608
  0.7398430831717719  2.1081537770142873 20.1183502264285075
