Hg Se Te Zn
 1.0000000000000000
     4.3965935606081690   -0.0000000000000000    0.0000000000000000
    -2.1982967790675882    3.8080872475799126    0.0000000000000000
     0.0000000000000000    0.0000000000000000  -38.0243648748916598
 Hg  Se  Te  Zn 
   1   1   2   2
Cartesian
  2.5744847241357536  1.3267133672841780 -22.6303674926165002
  0.3761879442438349  2.5960757831441494 -23.0243648748916669
  1.6033076214819275  1.0575414728958690 -18.7597473661473586
  1.6034164537809132  3.5959828150409376 -15.0000000000000018
  1.6031712878195896  1.0576293156072452 -15.9487888711410868
  1.6035525530266492  3.5958946025777840 -17.8106071591424282
