Zr Te I  Pt
 1.0000000000000000
     3.9426137760443023    0.0000237985287992    0.0000000000000000
    -1.9712862693182043    3.4144364907036140    0.0000000000000000
    -0.0000000000000002   -0.0000000000000000   41.2276762569924173
 Zr  Te  I   Pt 
   1   2   2   2
Cartesian
 -0.3010079883494500  1.4478699465781237 16.8615645620742107
  1.6703057725740169  2.5860313091651945 18.7231291241485991
  1.6703057725740169  2.5860313091651945 15.0000000000000000
 -0.7509788717395254  1.8931890560643190 21.8311892795585294
  3.1914817377649647  1.8933830097082169 26.2276762569924173
  1.2200950731506441  0.7550692284601228 24.7387845630326488
  1.2201420338500790  3.0313331423361407 23.3192733985525322
