Mg Br Pd Se
 1.0000000000000000
     3.8091954854140426   -0.0000000000000000    0.0000000000000000
    -1.9045977427070215    3.2988600583495575    0.0000000000000000
     0.0000000000000000    0.0000000000000000   39.0228169354930969
 Mg  Br  Pd  Se 
   1   2   1   2
Cartesian
  0.6266232195585700  0.7492804411659011 16.5070256484157625
  2.5312209622655892  1.8489004606157549 18.0140512968315250
  0.6266232195585698  2.9485204800656089 15.0000000000000000
  0.7666274296446488  0.8526285381027892 22.7097584111616868
  2.6712251723516696  1.9522485575526418 24.0228169354930969
  0.7666274296446487  3.0518685770024945 21.3967001275326112
