I  Cu Cd Br
 1.0000000000000000
     4.1195326479021013   -0.0000000000000000    0.0000000000000000
    -2.0597663227580694    3.5676199227362888    0.0000000000000000
     0.0000000000000000    0.0000000000000000   40.8884800703524363
 I   Cu  Cd  Br 
   2   2   1   2
Cartesian
  1.1797905134383726  0.8406491033686225 15.0000000000000000
  1.1797904936360304  3.2190623970848815 18.8558029306399995
  1.1797905134383728  0.8406491033686229 17.6212990317599960
  1.1797904936360302  3.2190623970848815 16.2370991544799992
  0.7111090604663848  0.0817975244022450 24.3218722196364823
  2.7708753848150960  1.2710041653143407 25.8884800703524363
  0.7111090612617059  2.4602108062264367 22.7552643689205425
