Hf Se Br Pt
 1.0000000000000000
     3.7164947622309095    0.0000194514724014    0.0000000000000000
    -1.8582305284910656    3.2186042633107972    0.0000000000000000
    -0.0000000000000002   -0.0000000000000000   41.1160042237637313
 Hf  Se  Br  Pt 
   1   2   2   2
Cartesian
 -0.3492023207030158  1.4706989288501653 16.6825459715619715
  1.5090506779539012  2.5435799842686988 18.3650919482088710
  1.5090506779539012  2.5435799842686988 15.0000000000000000
 -0.5202901197754243  2.0776541650555638 21.7811529513075257
  3.1960789325876089  2.0778139843854615 26.1160042237637384
  1.3377526937541426  1.0048048481184462 24.6734553075598626
  1.3377953774377667  3.1505100885763149 23.2226946957022946
