Hf Br Ti Br
 1.0000000000000000
     3.4861167123219845    0.0000000000000000    0.0000000000000000
    -1.7430583561609923    3.0190656334283261    0.0000000000000000
     0.0000000000000000    0.0000000000000000   41.0802699295782148
 Hf  Br  Ti  Br 
   1   2   1   2
Cartesian
  0.1703028623452488  1.2369474592466447 16.8486980501143790
  1.9133612185062412  2.2433026703894203 18.6973960898101055
  1.9133612185062412  2.2433026703894203 15.0000000000000000
  0.3030851433087176  1.4003441622637867 24.3864164705980500
  2.0461434994697099  2.4066993734065623 26.0802699295782148
  2.0461434994697099  2.4066993734065623 22.6925630122702131
