Sr Br Te Zn
 1.0000000000000000
     4.3590923097229943   -0.0000000000000000    0.0000000000000000
    -2.1795461536250009    3.7756102116396582    0.0000000000000000
    -0.0000000000000000    0.0000000000000000   40.7193838744419594
 Sr  Br  Te  Zn 
   1   2   2   2
Cartesian
 -0.4095707156143261  1.6732748304880070 16.8028165994893754
  1.7699754396593366  2.9318115677012262 18.6056331989787509
  1.7699754396593366  2.9318115677012262 15.0000000000000000
  1.3452515073853981  0.7951258965653265 21.9596365082946043
  1.3453594113937919  3.3119182991401521 25.7193838744419594
  1.3451163365967274  0.7952129901155861 24.7705950033008726
  1.3454943497653444  3.3118308389915199 22.9087767152995312
