Cr Se Mo Se
 1.0000000000000000
     3.2649574793640230    0.0000000000000000    0.0000000000000000
    -1.6324787396820115    2.8275361194052513    0.0000000000000000
     0.0000000000000000    0.0000000000000000   40.4817958311146739
 Cr  Se  Mo  Se 
   1   2   1   2
Cartesian
  0.2337422738678792  1.2112276702373934 16.5737644427049240
  1.8662210135498905  2.1537397100391438 18.1475288854098444
  1.8662210135498905  2.1537397100391438 15.0000000000000000
  0.3046262931832465  1.3674796677065584 23.8127663543514672
  1.9371050328652579  2.3099917075083090 25.4817958311146704
  1.9371050328652579  2.3099917075083090 22.1437368775882604
