Se Hf Hg I 
 1.0000000000000000
     4.3263616536752068   -0.0000000000000000    0.0000000000000000
    -2.1631808256193104    3.7474429721553451    0.0000000000000000
     0.0000000000000000    0.0000000000000000   41.1075650852412693
 Se  Hf  Hg  I  
   2   2   1   2
Cartesian
  1.2837849888847546  0.7157726885243473 15.0000000000000000
  1.2840528662372028  3.2134877876874537 18.6912765295358660
  1.2838471495953419  0.7157044004291940 17.7686483511876112
  1.2839907817434386  3.2135561289707990 15.9230671053787347
  0.7299609672023322  0.2191242884890453 24.3643145693314587
  2.8931417944460343  1.4682719458741604 26.1075650852412693
  0.7299609680145276  2.7174196032592755 22.6210640534216409
