Sr Br Ge Br Ge Br
 1.0000000000000000
     4.3180300399812097   -0.0506467540195987    0.0000000000000001
    -2.1152377024561515    3.7651400818372487    0.0000000000000001
     0.0000000000000022   -0.0000000000000000   38.2734688311014608
 Sr  Br  Ge  Br  Ge  Br 
   1   2   1   1   1   1
Cartesian
  3.1975891914632051  1.4322464138840287 16.8028165994893754
  5.3711966506319602  2.6535286051500462 18.6056331989787509
  5.3711966506319602  2.6535286051500462 15.0000000000000000
  1.1639229397751010  1.2845851148389031 20.2441201409355926
 -1.0148964454352303  0.0607945794713713 23.2734688311014608
 -1.0102785172315221  0.0631403164472064 20.9233441420303947
 -3.1541484655458016  1.3324953905600490 17.8939779215587293
