Al S  Zr Se
 1.0000000000000000
     3.5898703455794525    0.0000000000000000    0.0000000000000000
    -1.7949351727897263    3.1089189155642276    0.0000000000000000
    -0.0000000000000000    0.0000000000000000   44.6855566656175682
 Al  S   Zr  Se 
   2   2   2   2
Cartesian
  1.8362754539999275  1.3045232736170447 16.0691806254429039
  1.8362754539999275  1.3045232736170447 18.6673481735629565
  0.0413402812102017  2.3408295788051205 15.0000000000000036
  0.0413402812102017  2.3408295788051205 19.7365287990058391
  2.2174722099953725  1.5003676009973712 25.3267083281849388
  2.2174722099953725  1.5003676009973712 28.0729508368685217
  0.4225370372056464  2.5366739061854471 23.7141022419863461
  0.4225370372056464  2.5366739061854471 29.6855566656175682
