Ge Te Si F 
 1.0000000000000000
     3.9438787588831117    0.0000000000000000    0.0000000000000000
    -1.9719393794391789    3.4154991946374871    0.0000000000000000
     0.0000000000000012    0.0000000000000021   39.3409315052541189
 Ge  Te  Si  F  
   1   1   2   2
Cartesian
  2.3550450627918309  1.3853620419289516 16.5598212339094246
  0.3831056833510676  2.5238617734747804 15.0000000000000000
  1.2672467755394963  0.7304057069052956 21.9946754093932242
  1.2672467735794068  3.0074051699969533 22.6985024698135511
  1.2672467755394963  0.7304057069052952 20.3522463739536761
  1.2672467735794068  3.0074051699969537 24.3409315052541189
