Ba Cl Se Cd
 1.0000000000000000
     4.4930511259432890   -0.0000000000000000    0.0000000000000000
    -2.2465255616999329    3.8923194941491746    0.0000000000000000
     0.0000000000000000    0.0000000000000000   40.2359220897648981
 Ba  Cl  Se  Cd 
   1   2   2   2
Cartesian
 -0.3648906944319985  1.8744505973453665 16.6919307837616309
  1.8816348689635500  3.1718904287284246 18.3838615675232617
  1.8816348689635500  3.1718904287284246 15.0000000000000000
  1.3519864075405410  0.7256431858059701 21.6473304735086671
  1.3523467439433237  3.3195698677042280 25.2359220897649053
  1.3515836497952940  0.7258506902448978 24.5376475768931748
  1.3527514709330966  3.3193617678004843 22.3453933108083760
