S  Ti Ru Br
 1.0000000000000000
     3.8491589237550983   -0.0000000000000000    0.0000000000000000
    -1.9245794607585611    3.3343151348830076    0.0000000000000000
     0.0000000000000000    0.0000000000000000   39.7304396572124290
 S   Ti  Ru  Br 
   2   2   1   2
Cartesian
  1.1886822511505089  0.7509524832320671 14.9999999999999982
  1.1888896818047259  2.9732432216383913 18.2247483793411575
  1.1886149256385348  0.7509600655682994 17.4814467457056075
  1.1889570342209572  2.9732356427808382 15.7433429186812148
  0.6990928716434103 -0.1285640637215710 23.4135905032628315
  2.6236723338939552  0.9828743145727650 24.7304396572124290
  0.6990928723894023  2.0943126928671010 22.0967413493132270
