Ge F  Hg Br
 1.0000000000000000
     4.1967828348562843   -0.0000000000000000    0.0000000000000000
    -2.0983914174281422    3.6345205491527173    0.0000000000000000
     0.0000000000000013    0.0000000000000022   41.1693260838826234
 Ge  F   Hg  Br 
   2   2   1   2
Cartesian
  1.3019676891673748  0.7926199973444674 16.7809067055787082
  1.3019676928330093  3.2156336967796109 17.3739865908562336
  1.3019676891673748  0.7926199973444668 15.0000000000000000
  1.3019676928330093  3.2156336967796113 19.1548933276439897
  0.5630318870964970 -0.0691230361074735 24.5799185077518203
  2.6614233045246385  1.1423838136100992 26.1693260838826234
  0.5630318870964967  2.3538906633276717 22.9905109316210243
