Mo O  Ni O 
 1.0000000000000000
     2.8300513154692339    0.0000000000000000    0.0000000000000000
    -1.4150256577346170    2.4508963332099247    0.0000000000000000
     0.0000000000000000    0.0000000000000000   38.2833749289784393
 Mo  O   Ni  O  
   1   2   1   2
Cartesian
 -0.5633038694829084  1.2080263396696536 16.2250003583693214
  0.8517217882517083  2.0249917840729621 17.4500007167386428
  0.8517217882517083  2.0249917840729621 15.0000000000000000
  0.2816853152456278  0.8370237120641515 22.3339642752373315
  1.6967109729802448  1.6539891564674596 23.2833749289784393
  0.2816853152456277  2.4709546008707677 21.3845536214962273
