Cl Cd S  Ti
 1.0000000000000000
     3.9249930656774681    0.0012519794577290    0.0000000000000000
    -1.9614033496167675    3.4069803277732764    0.0000000000000000
     0.0000000000000033    0.0000000000000000   41.8297367177263482
 Cl  Cd  S   Ti 
   2   2   2   2
Cartesian
  1.2946134400029647 -0.2015466110177763 15.0000000000000000
  1.3069644420501281  4.3186809143714271 20.5111542448488713
  1.3072582415635063  2.0474513278753252 19.0920396605243425
  1.2943774495330447  2.0696812775437077 16.4189511839095843
  1.1979369065062040  0.9235754843660315 23.6049883383851942
  1.1988770197752536  3.1947141974582198 26.8297367177263553
  1.1978682570676811  0.9235832114703592 26.0864350840908052
  1.1989456966492282  3.1947064739177868 24.3483312570664125
