Mg Cl Pd Se
 1.0000000000000000
     3.7038916387418603    0.0000000000000000    0.0000000000000000
    -1.8519458193709304    3.2076642520152259    0.0000000000000000
     0.0000000000000000    0.0000000000000000  -38.6276849289501030
 Mg  Cl  Pd  Se 
   1   2   1   2
Cartesian
  0.6510219037135598  0.8654733627213249 -16.3729058647441406
  2.5029677230844900  1.9346947800597336 -15.0000000000000036
  0.6510219037135604  3.0039161973981421 -17.7458117294882705
  0.8102507131168384  0.7691106204018990 -22.3146266453210274
  2.6621965324877683  1.8383320377403076 -21.0015681209896172
  0.8102507131168383  2.9075534550787161 -23.6276849289501030
