Ca Cl Zr Te
 1.0000000000000000
     3.9341935978604652    0.0000000000000000    0.0000000000000000
    -1.9670967989302326    3.4071115991532626    0.0000000000000000
     0.0000000000000000    0.0000000000000000   40.9510146454561266
 Ca  Cl  Zr  Te 
   1   2   1   2
Cartesian
  0.1509770858887927  1.4728150775958206 16.6160803132927626
  2.1180738848190255  2.6085189439802416 18.2321606265855323
  2.1180738848190255  2.6085189439802416 14.9999999999999982
  0.3130790935721143  1.5691939241991464 24.0894500833817347
  2.2801758925023470  2.7048977905835669 25.9510146454561266
  2.2801758925023470  2.7048977905835669 22.2278855213075275
