Ga Se Zr Se
 1.0000000000000000
     3.8096368297052630   -0.0000000000000000    0.0000000000000000
    -1.9048184148526315    3.2992422737175691    0.0000000000000000
    -0.0000000000000000    0.0000000000000000   41.9702067921147659
 Ga  Se  Zr  Se 
   2   2   1   2
Cartesian
  2.0965290372839300  1.4796813695004658 16.1770728543176290
  2.0965290372839300  1.4796813695004658 18.6526280641098126
  0.1917106224312986  2.5794287940729888 15.0000000000000000
  0.1917106224312986  2.5794287940729888 19.8297009184262052
 -0.0350327310452797  0.7095190450848261 25.3896014869827411
  1.8697856838073514  1.8092664696573488 26.9702067921147659
 -0.0350327310452797  2.9090138942298718 23.8089961818505884
