Pb Se Sn Te
 1.0000000000000000
     4.1252794543424365   -0.0000000000000000    0.0000000000000000
    -2.0626397271712182    3.5725968051705497    0.0000000000000000
    -0.0000000000000000    0.0000000000000000   36.6320070074595847
 Pb  Se  Sn  Te 
   1   1   1   1
Cartesian
  2.1590892927409215  1.4364384154133591 16.5482420467416986
  0.0964495655697032  2.6273040171368751 15.0000000000000000
  2.3663714346703673  1.2517814267417826 21.6320070074595847
  0.3037317074991491  2.4426470284652986 19.9458464568949481
