S  Zr Mg I 
 1.0000000000000000
     4.2013466864930749    0.0000000000000000    0.0000000000000000
    -2.1006733420483190    3.6389746946493995    0.0000000000000000
    -0.0000000000000000    0.0000000000000000   40.5552809325417627
 S   Zr  Mg  I  
   2   2   1   2
Cartesian
  1.2361775102973773  0.9071402805967813 15.0000000000000000
  1.2364631115922249  3.3326667240490213 18.3278617161116202
  1.2362478222934665  0.9070576379264230 17.6238086027417182
  1.2363927885868331  3.3327493696863604 15.7040911197024684
  0.7571570027181698  0.0567860631658970 23.8809632758738992
  2.8578303463641119  1.2697776280490309 25.5552809325417627
  0.7571570035169820  2.4827691929321651 22.2066456192060357
