S  Cd Te Zn
 1.0000000000000000
     4.3224221234581037   -0.0000000000000000    0.0000000000000000
    -2.1612110592600153    3.7453186628699342    0.0000000000000000
     0.0000000000000000    0.0000000000000000   40.5679302649293092
 S   Cd  Te  Zn 
   2   2   2   2
Cartesian
  1.3254614842097612  1.0046507313934594 15.0000000000000000
  1.3257815981769554  3.5002942553472107 18.2374084038473541
  1.3250885981448415  1.0047213487617894 17.8133498455626693
  1.3261547112533376  3.5002236605622410 15.4239508926595672
  1.5230302491029439  0.9332083378205096 21.8081828987819435
  1.5231372462141806  3.4298086295755166 25.5679302649293021
  1.5228962154175441  0.9332947326231821 24.6191413937882153
  1.5232710494376351  3.4297218711156736 22.7573231057868739
