Ba Cl Br Ag
 1.0000000000000000
     4.4837415671511538   -0.0000000000000000    0.0000000000000000
    -2.2418707823091832    3.8854615936978396    0.0000000000000000
     0.0000000000000000    0.0000000000000000   40.4495984323337581
 Ba  Cl  Br  Ag 
   1   2   2   2
Cartesian
 -0.3268262160198389  1.7887135926115287 16.6919307837616344
  1.9150445679778691  3.0838674571774747 18.3838615675232653
  1.9150445679778691  3.0838674571774747 15.0000000000000036
  1.1833386805588768  0.8316173088735737 21.6080985601999487
  1.1862183105695465  3.4192366657532252 25.4495984323337581
  1.1821897211346688  0.8324089634190817 24.4331144744189643
  1.1873735676499226  3.4184355251507239 22.6254013064489072
