Al Te Hg Cl
 1.0000000000000000
     4.0546510868834211   -0.0000000000000000    0.0000000000000000
    -2.0273255434417106    3.5114308447232272    0.0000000000000000
    -0.0000000000000000    0.0000000000000000  -41.5860877281468859
 Al  Te  Hg  Cl 
   2   2   1   2
Cartesian
  2.4475090276669658  1.6603669556484029 -18.8534102305007281
  2.4475090276669658  1.6603669556484029 -16.2795918494369332
  0.4201834842252551  2.8308439038894786 -20.1330020799375866
  0.4201834842252551  2.8308439038894786 -15.0000000000000000
  0.0286496684733246  0.7433879520023756 -25.1264834395625627
  2.0559752119150381  1.9138649002434518 -23.6668791509782181
  0.0286496684733253  3.0843418484845277 -26.5860877281468859
