Ge S  Pb O 
 1.0000000000000000
     3.4228862503454609    0.0000000000000000    0.0000000000000000
    -1.7114431251727305    2.9643064470636307    0.0000000000000000
    -0.0000000000000000    0.0000000000000000   38.4396620917374321
 Ge  S   Pb  O  
   1   2   1   2
Cartesian
  0.5018944381312951  0.6520218717191200 16.3970091258366892
  2.2133375633040258  1.6401240207403300 17.7940182516731795
  0.5018944381312951  2.6282261697615406 15.0000000000000000
  0.6670839103927666  0.7419236081096453 22.3810429355927525
  2.3785270355654973  1.7300257571308555 23.4396620917374321
  0.6670839103927666  2.7181279061520658 21.3224237794480729
