Ga Te Ca Br
 1.0000000000000000
     4.2144615211727769   -0.0000000000000000    0.0000000000000000
    -2.1072307605863889    3.6498307406076327    0.0000000000000000
     0.0000000000000000    0.0000000000000000   42.1180771444901723
 Ga  Te  Ca  Br 
   2   2   1   2
Cartesian
  2.2937703891778476  1.5848279292198386 16.2730454743835047
  2.2937703891778476  1.5848279292198386 18.7468688976248323
  0.1865396285914594  2.8014381760890492 15.0000000000000000
  0.1865396285914594  2.8014381760890492 20.0199143598030744
  0.0216928899562430  0.7613193065711724 25.5577041500227331
  2.1289236505426308  1.9779295534403838 27.1180771444901723
  0.0216928899562425  3.1945398003095953 23.9973311555552904
