Pb I  Pb I 
 1.0000000000000000
     4.5812679846724453   -0.0000000000000000    0.0000000000000000
    -2.2906339923362227    3.9674944562706758    0.0000000000000000
     0.0000000000000000    0.0000000000000000   41.3924501193822820
 Pb  I   Pb  I  
   1   2   1   2
Cartesian
 -0.3316581082941233  1.6906519508378346 17.0310965280492574
  1.9589758840420992  3.0131501029280598 19.0621930560985149
  1.9589758840420992  3.0131501029280598 15.0000000000000000
  0.3168355842234650  0.9795599414156052 24.5250404509239992
  2.6074695765596885  2.3020580935058295 26.3924501193822891
  0.3168355842234649  3.6245562455960534 22.6576307824657164
