Tl Te Hg I 
 1.0000000000000000
     4.4490855222654480    0.0000000000000000    0.0000000000000000
    -2.2245427611327244    3.8530210858914344    0.0000000000000000
    -0.0000000000000000    0.0000000000000000   43.1450069076455947
 Tl  Te  Hg  I  
   2   2   1   2
Cartesian
  2.3558388842559710  1.7868472196148506 16.3836225870480980
  2.3558388842559710  1.7868472196148506 19.2838467229453485
  0.1312961231232468  3.0711875815786618 15.0000000000000000
  0.1312961231232467  3.0711875815786618 20.6674692707617140
 -0.0870383379485695  0.6698809608963281 26.4017563917357840
  2.1375044231841551  1.9542213228601397 28.1450069076455947
 -0.0870383379485696  3.2385616848239516 24.6585058758259663
