W  Te Ge Se
 1.0000000000000000
     3.6081460792947091    0.0000000000000000    0.0000000000000000
    -1.8040730396473545    3.1247461652344395    0.0000000000000000
     0.0000000000000000    0.0000000000000000  -39.0182578570466632
 W   Te  Ge  Se 
   1   2   1   1
Cartesian
 -0.1049529150549071  1.2744353229644376 -16.8119622132334641
  1.6991201245924477  2.3160173780425839 -15.0000000000000000
  1.6991201245924477  2.3160173780425839 -18.6239244264669317
  2.0610726332696303  1.7790821271557438 -22.5708981233330519
  0.2569995936222762  2.8206641822338900 -24.0182578570466632
