Tl Te Tl Te
 1.0000000000000000
     4.5154093742281169    0.0000000000000000    0.0000000000000000
    -2.2577046871140585    3.9104592265679439    0.0000000000000000
    -0.0000000000000000    0.0000000000000000   44.7387382724571339
 Tl  Te  Tl  Te 
   1   2   3   2
Cartesian
  0.1045101461432124  3.5095015370344802 19.2790469082712974
  2.3620964356847196  2.2054560637677696 15.0000000000000000
  0.1041433106766743  0.9021330538067025 20.6581421205022124
  0.1040219575241539  3.5100629644422745 16.3790905088326184
  2.2630543172993325  1.6811239116812995 25.4548915887435179
  2.2630543172993325  1.6811239116812995 28.3551157246407683
  0.0053496301852750  2.9846103205372807 24.0712690016954198
  0.0053496301852750  2.9846103205372807 29.7387382724571339
