Sn S  Mg Br
 1.0000000000000000
     3.8177874445135442   -0.0000000000000000    0.0000000000000000
    -1.9088937222567726    3.3063009131980028    0.0000000000000000
    -0.0000000000000000    0.0000000000000000   38.0129330864615653
 Sn  S   Mg  Br 
   1   1   1   2
Cartesian
  2.1389657563073703  1.5166917900502452 16.4598471617338120
  0.2300720340505985  2.6187920944495793 15.0000000000000000
  0.6777562687591014  0.4717803733739170 21.5059074380458064
  2.5866499910158716  1.5738806777732524 23.0129330864615653
  0.6777562687591010  2.6759809821725877 19.9988817896300439
