Se Cd Hg I 
 1.0000000000000000
     4.4198778166402297   -0.0000000000000000    0.0000000000000000
    -2.2099389070484037    3.8289495494137493    0.0000000000000000
     0.0000000000000000    0.0000000000000000   40.9537752286489862
 Se  Cd  Hg  I  
   2   2   1   2
Cartesian
  1.3579293228016736  0.8181027845814287 15.0000000000000000
  1.3582837908214125  3.3697983519150356 18.5885916162562417
  1.3575331243223343  0.8183069106890434 17.8903171033845112
  1.3586819264743899  3.3695936400372291 15.6980628372997124
  0.7421027091963630  0.0553733625619804 24.2105247127391721
  2.9520416179403828  1.3316898790332301 25.9537752286489862
  0.7421027100441705  2.6080063955044799 22.4672741968293579
