Si F  Zr Se
 1.0000000000000000
     3.8695707709258262    0.0000000000000000    0.0000000000000000
    -1.9347853854605361    3.3511465893623740    0.0000000000000000
     0.0000000000000013    0.0000000000000022   41.0110865315027695
 Si  F   Zr  Se 
   2   2   1   2
Cartesian
  1.1475053608247681  0.7365528360954414 16.6424290354395481
  1.1475053589016395  2.9706505623370232 17.3462560958598786
  1.1475053608247681  0.7365528360954410 15.0000000000000000
  1.1475053589016395  2.9706505623370236 18.9886851313004463
  0.6436566377239100 -0.1779369670602698 24.4304812263707340
  2.5784420231876153  0.9391118960605215 26.0110865315027624
  0.6436566377254946  2.0561607591813122 22.8498759212385849
