F  Pt Ni S 
 1.0000000000000000
     3.3728327364681778    0.0000585085648160    0.0000000000000000
    -1.6863656369433506    2.9211138725940726    0.0000000000000000
    -0.0000000000000012   -0.0000000000000000   39.4794425812024059
 F   Pt  Ni  S  
   2   2   1   2
Cartesian
 -0.6163286770027705  1.7000243448512884 15.0000000000000000
  2.7562788863818102  1.7007261093807804 18.7933056562285934
  1.0699189123045287  0.7267085323749298 17.6544166225755852
  1.0700532895974300  2.6739664921252277 16.1389253694520747
  0.5597220008362191 -0.0120082491989799 23.3040086529771457
  2.2461552795005542  0.9617353807089217 24.4794425812024024
  0.5597558216967113  1.9354205020520070 22.1285747247518891
