W  Se B  P 
 1.0000000000000000
     3.2674152137402119    0.0000000000000000    0.0000000000000000
    -1.6337076068701060    2.8296645798107853    0.0000000000000000
     0.0000000000000000    0.0000000000000000  -37.2285264751302662
 W   Se  B   P  
   1   2   1   1
Cartesian
  0.2537536189273075  1.0230901429813311 -16.6792764021964075
  1.8874612257974133  1.9663116695849261 -14.9999999999999964
  1.8874612257974133  1.9663116695849261 -18.3585528043928150
  0.2597385370224099  1.8977186666087993 -22.2285264751302627
  1.8934461438925168  0.9544971400052041 -22.2285264751302627
