Ge Cl Ge F 
 1.0000000000000000
     4.2413849781596813   -0.0000000000000002    0.0000000000000000
    -2.1206924890798406    3.6731471383177716    0.0000000000000000
     0.0000000000000023    0.0000000000000039   42.2764448447715893
 Ge  Cl  Ge  F  
   2   2   2   2
Cartesian
  1.2626334291662393  0.9667333574829113 17.1900136315555017
  1.2626334328708311  3.4154981163614266 17.8618516334689801
  1.2626334291662393  0.9667333574829108 15.0000000000000000
  1.2626334328708313  3.4154981163614266 20.0518652577973953
  1.1195121754891948  0.8544712331032465 24.9024582227063149
  1.1195121791937868  3.3032359919817598 25.4955381079838332
  1.1195121754891948  0.8544712331032459 23.1215515171275996
  1.1195121791937868  3.3032359919817607 27.2764448447715893
