Hg Te Cd
 1.0000000000000000
     4.7001537866118230    0.0000000000000000    0.0000000000000000
    -2.3500768919724790    4.0713436904302718    0.0000000000000000
     0.0000000000000000    0.0000000000000000  -38.2176394716914842
 Hg  Te  Cd 
   1   3   2
Cartesian
  2.7813829836153530  1.7765151365226302 -22.7049298315613015
  0.4313060907539195  3.1336296999993873 -23.2176394716914842
  1.6499879566644962  0.8296039072442060 -18.9868015879661591
  1.6500980491897437  3.5432930332754666 -15.0000000000000053
  1.6496039889025285  0.8298497849296083 -15.9429423785144078
  1.6504835211092714  3.5430467416127982 -18.0443090689685448
