Ga Te Hg Cl
 1.0000000000000000
     4.0621054834735935   -0.0000000000000000    0.0000000000000000
    -2.0310527417367972    3.5178865415402005    0.0000000000000000
     0.0000000000000000    0.0000000000000000   41.9277702113387249
 Ga  Te  Hg  Cl 
   2   2   1   2
Cartesian
  2.2497261625500080  1.5230704230580427 16.2730454743835011
  2.2497261625500080  1.5230704230580427 18.7468688976248288
  0.2186734208132111  2.6956992702381095 14.9999999999999964
  0.2186734208132111  2.6956992702381095 20.0199143598030744
  0.1331190248700906  0.6463751201948136 25.4681659227543804
  2.1641717666068896  1.8190039673748810 26.9277702113387249
  0.1331190248700910  2.9916328145549484 24.0085616341700572
