Ge F  Zn I 
 1.0000000000000000
     4.1751125461512686   -0.0000000000000000    0.0000000000000000
    -2.0875562730756347    3.6157535286268314    0.0000000000000000
     0.0000000000000013    0.0000000000000022   41.3400749162461736
 Ge  F   Zn  I  
   2   2   1   2
Cartesian
  1.2460687119197469  0.6501239259022137 16.7809067055787118
  1.2460687155664536  3.0606262783201004 17.3739865908562336
  1.2460687119197469  0.6501239259022131 15.0000000000000018
  1.2460687155664536  3.0606262783201008 19.1548933276439897
  0.8357713768518673  0.0265268128767045 24.7126691477337772
  2.9233276499275016  1.2317779890856486 26.3400749162461665
  0.8357713768518666  2.4370291652945926 23.0852633792213950
