Ti Se Zr Cl
 1.0000000000000000
     3.4527002949052084    0.0000000000000000    0.0000000000000000
    -1.7263501474526042    2.9901261670419332    0.0000000000000000
     0.0000000000000000    0.0000000000000000   40.6501093796936033
 Ti  Se  Zr  Cl 
   1   2   1   2
Cartesian
  0.2540718471959590  1.5244406566893862 16.6199398271809464
  1.9804219946485635  2.5211493790366974 18.2398796543619532
  1.9804219946485635  2.5211493790366974 15.0000000000000000
  0.4137286653758974  1.3900631364851093 23.9422101597748096
  2.1400788128285013  2.3867718588324203 25.6501093796936033
  2.1400788128285013  2.3867718588324203 22.2343109398559982
