Al Se Ga S 
 1.0000000000000000
     3.7115243418833090   -0.0000000000000000    0.0000000000000000
    -1.8557621709416545    3.2142743668352658    0.0000000000000000
    -0.0000000000000000    0.0000000000000000   43.5810711565972184
 Al  Se  Ga  S  
   2   2   2   2
Cartesian
  2.0381879037376929  1.2333920289906020 16.1674793328362689
  2.0381879037376929  1.2333920289906020 18.7553318157724647
  0.1824257327960383  2.3048168179356905 15.0000000000000000
  0.1824257327960383  2.3048168179356905 19.9228111486087727
  2.1903754974811021  1.4604624750957693 25.0083250099898748
  2.1903754974811021  1.4604624750957693 27.4870435712332259
  0.3346133265394479  2.5318872640408574 23.9142974246257225
  0.3346133265394480  2.5318872640408574 28.5810711565972184
