Cl Ag Ge Cl
 1.0000000000000000
     4.3163621201980558   -0.0000000000000002    0.0000000000000000
    -2.1581810588422714    3.7461498987304478    0.0000000000000000
     0.0000000000000010    0.0000000000000017   42.0221649408552977
 Cl  Ag  Ge  Cl 
   2   2   2   2
Cartesian
  1.2781759701832491  0.9383159350698456 15.0000000000000000
  1.2737503982241225  3.4306023629533584 18.2868565417185991
  1.2736920975146715  0.9404376569614974 17.9775021923323379
  1.2782694062489133  3.4284622378798248 15.3080484603362663
  1.4730778794732342  0.7878748042658518 24.1603133146134006
  1.4730778840811516  3.2853080700861526 24.8321513165268790
  1.4730778794732342  0.7878748042658513 21.9702996830578989
  1.4730778840811516  3.2853080700861526 27.0221649408552977
