W  Te Cl Pd
 1.0000000000000000
     3.6092080181351136   -0.0000057074165551    0.0000000000000000
    -1.8046089525722580    3.1256397849044708    0.0000000000000000
    -0.0000000000000001    0.0000000000000000   40.8726413997804627
 W   Te  Cl  Pd 
   1   2   2   2
Cartesian
 -0.2527168570582926  1.4336084876120747 16.8119622132334641
  1.5518855041743640  2.4754846109691946 18.6239244264669281
  1.5518855041743640  2.4754846109691946 15.0000000000000000
 -0.7531504899708866  1.7567174811993860 21.8123686712275529
  2.8561086959026110  1.7566247501754073 25.8726413997804627
  1.0512397159764193  0.7146244704513487 24.5944377049704030
  1.0512324410829239  2.7984072998877583 23.0885843623033864
