Ba I  Bi Se Bi
 1.0000000000000000
     4.9195525424115516    0.0000000000000000    0.0000000000000000
    -2.4597762712057758    4.2604574769807257    0.0000000000000000
     0.0000000000000000    0.0000000000000000   41.8707552462951753
 Ba  I   Bi  Se  Bi 
   1   2   1   2   1
Cartesian
  0.3680088760780479  1.0413999730318051 17.0447426683638206
  2.8277851472838242  2.4615524653587135 19.0894853367277690
  2.8277851472838242  2.4615524653587135 15.0000000000000000
  0.6645317809078766  3.8268541703445358 26.5105415579882120
  3.1291975750342087  2.4065503765941649 23.0771595684964161
  0.6638641278294759  0.9863359178551464 26.8707552462951824
  0.6687432206753556  3.8276062776936182 23.4373851101958124
