Ge Te Pt Te
 1.0000000000000000
     3.9796372542815375   -0.0000000000000000    0.0000000000000000
    -1.9898186271407687    3.4464669600547584    0.0000000000000000
     0.0000000000000000    0.0000000000000000   37.7866050231260076
 Ge  Te  Pt  Te 
   1   1   1   2
Cartesian
  2.2574267896056570  1.7473389496992247 16.5598212339094282
  0.2676081624648891  2.8961612697174774 15.0000000000000000
  0.4285863255991191  0.3103569100654645 21.3993907935725005
  2.4184049527398876  1.4591792300837172 22.7866050231260076
  0.4285863255991191  2.6080015501019700 20.0121765649754693
