Ge Te Pb Se
 1.0000000000000000
     3.9713306004812363   -0.0000000000000000    0.0000000000000000
    -1.9856653002406182    3.4392731868432556    0.0000000000000000
     0.0000000000000000    0.0000000000000000   38.4194168510286289
 Ge  Te  Pb  Se 
   1   1   1   2
Cartesian
  2.2766552930451804  1.6284712428783998 16.5598212339094246
  0.2909899928045629  2.7748956384928181 15.0000000000000000
  0.7233784017701403  0.4274043750708164 21.7503176945281744
  2.7090437020107583  1.5738287706852352 23.4194168510286289
  0.7233784017701402  2.7202531662996536 20.0812185380277199
