Al S  Ga S 
 1.0000000000000000
     3.6146663698072068    0.0000000000000000    0.0000000000000000
    -1.8073331849036034    3.1303929024583170    0.0000000000000000
     0.0000000000000000    0.0000000000000000   43.3843249567946003
 Al  S   Ga  S  
   2   2   2   2
Cartesian
  1.9389871411329525  1.1731495181769549 16.0691806254428968
  1.9389871411329525  1.1731495181769549 18.6673481735629530
  0.1316539562293493  2.2166138189963944 14.9999999999999982
  0.1316539562293493  2.2166138189963944 19.7365287990058320
  2.1545961056636092  1.4858264191712121 24.8115788101872567
  2.1545961056636092  1.4858264191712121 27.2902973714306114
  0.3472629207600059  2.5292907199906507 23.7175512248231044
  0.3472629207600059  2.5292907199906507 28.3843249567946003
