Sn Se Br Pt
 1.0000000000000000
     3.8314856292811701    0.0000194514724014    0.0000000000000000
    -1.9157259620161962    3.3181892753795221    0.0000000000000000
    -0.0000000000000002   -0.0000000000000000   38.4821937428885548
 Sn  Se  Br  Pt 
   1   1   2   2
Cartesian
  2.1420539065531456  1.8938688632459564 16.5586206887278209
  0.2263167094540237  2.9999254712149970 15.0000000000000000
 -0.8881671651612759  1.5489697993078970 19.1473424704323349
  2.9431888646807574  1.5491339616874280 23.4821937428885548
  1.0273649262422044  0.4429258585443285 22.0396448266846754
  1.0274085829729120  2.6550199492892119 20.5888842148271074
