In Te In Te
 1.0000000000000000
     4.3755320449195736    0.0000000000000000    0.0000000000000000
    -2.1877660224597868    3.7893219059732237    0.0000000000000000
    -0.0000000000000000    0.0000000000000000   44.4499320898251682
 In  Te  In  Te 
   1   2   3   2
Cartesian
  0.0818332701977836  3.3051075587538170 19.1831637923550566
  2.2696057592055805  2.0416049147251658 15.0000000000000000
  0.0817768162487630  0.7785767890826349 20.5577319829025171
  0.0817794259052942  3.3053048445798270 16.3745712080990309
  2.3296037953800295  1.7497289041655935 25.2567900007188939
  2.3296037953800295  1.7497289041655935 28.0689777516371848
  0.1418377729202428  3.0128362061566678 23.8758356625166392
  0.1418377729202427  3.0128362061566678 29.4499320898251682
