Ti Cl Ga N 
 1.0000000000000000
     3.2737368192324210    0.0000000000000000    0.0000000000000000
    -1.6368684096162105    2.8351392507597408    0.0000000000000000
     0.0000000000000000    0.0000000000000000   37.1031654803721835
 Ti  Cl  Ga  N  
   1   2   1   1
Cartesian
  0.0413629728108111  0.8537159710488745 20.5173057896189732
  1.6782313824270210  1.7987623879687880 22.1031654803721835
  1.6782313824270210  1.7987623879687880 18.9314463532048123
  0.4599290875370806  2.1364505173303758 15.0000000000000000
  2.0967974971532910  1.1914041004104619 15.0000000000000000
