Pb O  Zr O 
 1.0000000000000000
     3.3355151866318855    0.0000000000000000    0.0000000000000000
    -1.6677575933159428    2.8886408863320057    0.0000000000000000
     0.0000000000000000    0.0000000000000000   37.3977747031416783
 Pb  O   Zr  O  
   1   2   1   2
Cartesian
  0.6287343921106295  0.9465596021820259 21.3391555469969916
  2.2964919854265720  1.9094398976260276 22.3977747031416712
  0.6287343921106295  2.8723201930700295 20.2805363908523120
  0.7176671337100353  0.6294571658860716 15.9613319724315765
  2.3854247270259781  1.5923374613300734 16.9226639448631531
  0.7176671337100353  2.5552177567740753 14.9999999999999964
