Cd F  Pd S 
 1.0000000000000000
     3.5327516618601162   -0.0000000000000000    0.0000000000000000
    -1.7663758309300559    3.0594526844325589    0.0000000000000000
     0.0000000000000002   -0.0000000000000000   38.0336633963895423
 Cd  F   Pd  S  
   1   2   1   2
Cartesian
  0.4838284918988299  0.6895282690602380 16.0171616820291440
  2.2502043228288873  1.7093458305377576 17.0343233640583236
  0.4838284918988285  2.7291633920152774 15.0000000000000000
  0.6832433859837157  0.7770533677414506 21.7885915629850118
  2.4496192169137738  1.7968709292189702 23.0336633963895423
  0.6832433859837170  2.8166884906964897 20.5435197295804812
