Pb S  I  Ag
 1.0000000000000000
     4.6510694843262996    0.0000000000000000    0.0000000000000000
    -2.3255347408564946    4.0303745338580690    0.0000000000000000
     0.0000000000000000    0.0000000000000000   39.5885020098158833
 Pb  S   I   Ag 
   1   2   2   2
Cartesian
 -0.3662742622006405  1.7352154947022802 16.0751107127686303
  1.9592604803980609  3.0786736726549697 17.1502214255372607
  1.9592604803980609  3.0786736726549697 15.0000000000000000
  1.3941263409993851  0.8778920671153403 20.4417828141812841
  1.3938607963188738  3.5633976631179078 24.5885020098158833
  1.3923603700431197  0.8788899097192682 23.3439172847773904
  1.3956423760902430  3.5623929230324110 21.6853918252974616
