I  Pt Hg Cl
 1.0000000000000000
     3.9783502044877723    0.0000237985287992    0.0000000000000000
    -1.9891544835399393    3.4453851455761830    0.0000000000000000
    -0.0000000000000002   -0.0000000000000000   40.3953674791488311
 I   Pt  Hg  Cl 
   2   2   1   2
Cartesian
 -0.7916112760062399  1.9208990503367658 15.0000000000000000
  3.1865843736084671  1.9210945462797242 19.3964869774338879
  1.1973288339710275  0.7724631652177932 17.9075952834741194
  1.1973760957370660  3.0693591983169948 16.4880841189940028
  0.7137324311653395  0.2573748835227258 23.9357631905644865
  2.7029144063105441  1.4058524644006536 25.3953674791488311
  0.7137461769679715  2.5543062467497823 22.4761589019801633
