Zr Br Pt S 
 1.0000000000000000
     3.5679607534576556   -0.0000000000000000    0.0000000000000000
    -1.7839803767288278    3.0899446522001961    0.0000000000000000
     0.0000000000000000    0.0000000000000000   40.0562697038984723
 Zr  Br  Pt  S  
   1   2   1   2
Cartesian
 -0.7777219179148261  1.5970010184063319 16.8261924305408108
  1.0062584588140013  2.6269825691397304 18.6523848530272502
  1.0062584588140013  2.6269825691397304 15.0000000000000000
  0.3986989745358595  0.8963806229556689 23.8242423343980008
  2.1826793512646874  1.9263621736890675 25.0562697038984723
  0.3986989745358592  2.9563437244224664 22.5922149648975328
