In Se Pt Te
 1.0000000000000000
     4.0450327326018707   -0.0000000000000000    0.0000000000000000
    -2.0225163663009353    3.5031011055728056    0.0000000000000000
     0.0000000000000000    0.0000000000000000   41.5116903877305319
 In  Se  Pt  Te 
   2   2   1   2
Cartesian
  2.3209032354318007  1.5350207870197043 22.4209144506018845
  2.3209032354318007  1.5350207870197043 25.2351601639881480
  0.2983868691308658  2.7027211555439727 21.1443842044617547
  0.2983868691308658  2.7027211555439727 26.5116903877305212
  0.2222923070421234  0.6099130125000594 16.3872142285970313
  2.2448086733430581  1.7776133810243280 17.7744284581505383
  0.2222923070421234  2.9453137495485966 15.0000000000000000
