Sn Se Ru Br
 1.0000000000000000
     3.8436049992177570   -0.0000000000000000    0.0000000000000000
    -1.9218024996088787    3.3286595714354448    0.0000000000000000
     0.0000000000000000    0.0000000000000000   37.7344525288355470
 Sn  Se  Ru  Br 
   1   1   1   2
Cartesian
  2.1871271345625640  1.4397497163052000 16.5586206887278209
  0.2653246349536857  2.5493029067836814 15.0000000000000000
  0.6489345205786086  0.2650109522455903 21.4176033748859496
  2.5707370201874862  1.3745641427240722 22.7344525288355470
  0.6489345205786086  2.4841173332025539 20.1007542209363450
