Ba Br I  Ag
 1.0000000000000000
     4.6336508823937415    0.0000000000000000    0.0000000000000000
    -2.3168254398902155    4.0152895820860648    0.0000000000000000
     0.0000000000000000    0.0000000000000000   41.0041721031809558
 Ba  Br  I   Ag 
   1   2   2   2
Cartesian
 -0.3486659292337114  1.8066071514983058 16.8371869788974422
  1.9681595123987106  3.1450370121936606 18.6743739577948844
  1.9681595123987106  3.1450370121936606 15.0000000000000000
  1.3396107419799541  0.8064328168991692 21.8574529075463602
  1.3393461917873271  3.4818870586023221 26.0041721031809558
  1.3378513847165654  0.8074269247614669 24.7595873781424629
  1.3411210994096436  3.4808860790744620 23.1010619186625341
