Cr Te Zr Se
 1.0000000000000000
     3.5329516777154995    0.0000000000000000    0.0000000000000000
    -1.7664758388577497    3.0596259032444753    0.0000000000000000
     0.0000000000000000    0.0000000000000000  -43.1087516796937962
 Cr  Te  Zr  Se 
   1   2   2   2
Cartesian
 -0.1132629538160996  1.0728319825569153 -26.4025153668973154
  1.6532128850416501  2.0927072836384069 -24.6962790541008346
  1.6532128850416501  2.0927072836384069 -28.1087516796937962
  2.0154720071956493  1.4627051045125672 -19.3588483374326330
  2.0154720071956493  1.4627051045125672 -16.6126058287490466
  0.2489961683378996  2.4825804055940592 -20.9714544236312257
  0.2489961683378996  2.4825804055940592 -15.0000000000000036
