I  Cd Te Zn
 1.0000000000000000
     4.3651205345587289    0.0008383076656587    0.0000000000000000
    -2.1818282863259197    3.7880858798409238    0.0000000000000000
     0.0000000000000033    0.0000000000000000   42.5257117939028646
 I   Cd  Te  Zn 
   2   2   2   2
Cartesian
  1.3189283181491058 -0.2957150937367076 14.9999999999999982
  1.3304742938990208  4.7237018348993205 20.9102076548876994
  1.3356534822339050  2.2007095065504982 19.2986420562647361
  1.3168255055792857  2.2250906268660131 16.6116177631989359
  1.3695109291482046  0.9629705498640229 23.7659644277555202
  1.3701069143632094  3.4883585612694610 27.5257117939028717
  1.3693755883156080  0.9630579148694107 26.5769229227617885
  1.3702420223862037  3.4882708283689627 24.7151046347604435
