Al Te Ga Te
 1.0000000000000000
     4.1227615469358998   -0.0000000000000000    0.0000000000000000
    -2.0613807734679499    3.5704162333921188    0.0000000000000000
     0.0000000000000000    0.0000000000000000   44.1381831994323477
 Al  Te  Ga  Te 
   2   2   2   2
Cartesian
  2.2798282483079375  1.2357313256508835 16.2795918494368550
  2.2798282483079375  1.2357313256508835 18.8534102305006535
  0.2184474748399878  2.4258700701149234 14.9999999999999964
  0.2184474748399877  2.4258700701149234 20.1330020799375831
  2.3613218477571016  1.5716541855522039 25.3913143140127779
  2.3613218477571016  1.5716541855522039 27.8651377372541056
  0.2999410742891522  2.7617929300162429 24.1182688396292733
  0.2999410742891522  2.7617929300162429 29.1381831994323477
