Pb I  Te Zn
 1.0000000000000000
     4.4158967042331945   -0.0000000000000000    0.0000000000000000
    -2.2079483508801010    3.8248042603320846    0.0000000000000000
    -0.0000000000000000    0.0000000000000000   41.3820232149755896
 Pb  I   Te  Zn 
   1   2   2   2
Cartesian
 -0.3883225966709425  1.3638836249501356 17.0310965280492610
  1.8196257558578204  2.6388183783941632 19.0621930560985149
  1.8196257558578204  2.6388183783941632 15.0000000000000036
  1.1375272296177115  0.9467810076248033 22.6222758488282309
  1.1376365397388017  3.4963657804552510 26.3820232149755896
  1.1373902973855423  0.9468692359543733 25.4332343438345063
  1.1377732365251683  3.4962771807507407 23.5714160558331614
