Hf S  Zr S 
 1.0000000000000000
     3.6672267173156392   -0.0000000000000000    0.0000000000000000
    -1.8336133586578196    3.1759114986323573    0.0000000000000000
     0.0000000000000000    0.0000000000000000  -39.1963153505182333
 Hf  S   Zr  S  
   1   2   1   2
Cartesian
  0.7713921564306285  0.8864403828992313 -16.4481043019911937
  2.6050055150884477  1.9450775491100172 -15.0000000000000000
  0.7713921564306285  3.0037147153208030 -17.8962086039820498
  0.8158448467820743  1.0176578733631796 -22.7504329077741083
  2.6494582054398936  2.0762950395739654 -21.3045504650300437
  0.8158448467820741  3.1349322057847511 -24.1963153505182333
