Sr I  Au
 1.0000000000000000
     4.8155838753577971   -0.0000000000000000    0.0000000000000000
    -2.4077919376788981    4.1706521999108244    0.0000000000000000
     0.0000000000000000    0.0000000000000000   37.3811771759400315
 Sr  I   Au 
   1   3   1
Cartesian
  1.4334456175627008  0.5308089229223769 20.5855479640510950
  3.8412375552415998  1.9210263228926516 22.3811771759400315
  1.4334456175627013  3.3112437228629266 18.7899187521621869
  0.2666922342706970  1.6203493069865984 15.0000000000000000
  2.6744841719495969  3.0107810306493672 15.0000000000000000
