Se Zr Te Zn
 1.0000000000000000
     4.3274203466351144   -0.0000000000000000    0.0000000000000000
    -2.1637101708456656    3.7487883896204472    0.0000000000000000
    -0.0000000000000000    0.0000000000000000   40.5329905406807143
 Se  Zr  Te  Zn 
   2   2   2   2
Cartesian
  1.3332802029854802  0.8821418682511376 14.9999999999999982
  1.3335607210844516  3.3808197083943754 18.6594271009583217
  1.3332780674194429  0.8821047681295856 17.7738960244099964
  1.3335628697902586  3.3808567857763880 15.8857507556857804
  1.2209254842950850  0.8716540791324452 21.7732431745333628
  1.2210326051321925  3.3705672637538235 25.5329905406807178
  1.2207912956201319  0.8717405539727286 24.5842016695396310
  1.2211665630787056  3.3704804249194718 22.7223833815382896
