Ge Se Cl Pd
 1.0000000000000000
     3.6672778753584625   -0.0000057074165551    0.0000000000000000
    -1.8336438811839322    3.1759297564540256    0.0000000000000000
    -0.0000000000000001    0.0000000000000000   38.1974318419992755
 Ge  Se  Cl  Pd 
   1   1   2   2
Cartesian
  2.0715980695738838  1.2702049148944468 16.4473597337136113
  0.2379574840597522  2.3288500695179732 15.0000000000000000
 -0.8812055825734105  1.4924457062034164 19.1371591134463586
  2.7861242837775273  1.4923515750134013 23.1974318419992684
  0.9522160855116129  0.4335859738174060 21.9192281471892088
  0.9522087465955770  2.5508958511849342 20.4133748045221886
