In Se In S  Zr
 1.0000000000000000
     4.1400160129887746    0.0000000000000000    0.0000000000000000
    -2.0700080052961689    3.5858607733634633    0.0000000000000000
    -0.0000000000000000    0.0000000000000000   42.6208730359486339
 In  Se  In  S   Zr 
   1   2   1   2   2
Cartesian
  0.8114180122056037  3.2691787463563924 19.0853122328591063
  2.8814344486449102  2.0735272492543784 15.0000000000000000
  0.8112628905182271  0.8783837332310716 20.3557279819780419
  0.8112713187214711  3.2693948276601312 16.2704079646881112
  1.3028392082808629  0.3693117187373409 24.2930113198370137
  1.3031206404194635  2.7594355470562837 27.6208730359486339
  1.3029084938722302  0.3692302823068321 26.9168199225787319
  1.3030513439795062  2.7595169864104676 24.9971024395394821
