Zr Se Ru Cl
 1.0000000000000000
     3.5944522755855708    0.0000000000000000    0.0000000000000000
    -1.7972261377927858    3.1128869833478880    0.0000000000000000
     0.0000000000000000    0.0000000000000000  -41.9386161127343229
 Zr  Se  Ru  Cl 
   2   2   1   2
Cartesian
  2.0482681493027428  1.3723421044528199 -19.3588483374326330
  2.0482681493027428  1.3723421044528199 -16.6126058287490466
  0.2510420115099574  2.4099710989021159 -20.9714544236312221
  0.2510420115099574  2.4099710989021159 -15.0000000000000018
  0.1901613353852583  0.5645142378104558 -25.7112399736372907
  1.9873874731780450  1.6021432322597517 -24.4838638240216966
  0.1901613353852595  2.6397722267090478 -26.9386161127343264
