In Te Sr Cl
 1.0000000000000000
     4.4163208027286611    0.0000000000000000    0.0000000000000000
    -2.2081604013643306    3.8246460064247039    0.0000000000000000
     0.0000000000000000    0.0000000000000000  -41.5854199668195719
 In  Te  Sr  Cl 
   2   2   1   2
Cartesian
  2.5078536103842359  1.6441220962293999 -19.1931420891062707
  2.5078536103842359  1.6441220962293999 -16.3809543381879834
  0.2996932090199058  2.9190040983709675 -20.5740964273085254
  0.2996932090199057  2.9190040983709675 -14.9999999999999964
  0.2534443565524063  0.6594211827678810 -25.1891031427493246
  2.4616047579167373  1.9343031849094499 -23.7927863186790702
  0.2534443565524066  3.2091851870510189 -26.5854199668195719
