S  Cd I 
 1.0000000000000000
     4.3199361124746005   -0.0000000000000000    0.0000000000000000
    -2.1599680550047600    3.7426401802259721    0.0000000000000000
     0.0000000000000000    0.0000000000000000   40.5894599720210252
 S   Cd  I  
   2   3   2
Cartesian
  1.2431795727832413  0.6970376795726376 15.0000000000000000
  1.2434995018161397  3.1908964320646991 18.2374084038473541
  1.2428069011811216  0.6971082464386171 17.8133498455626693
  1.2438724002991575  3.1908258877659286 15.4239508926595690
  0.8188738167334617 -0.0251342456332379 23.8689435502431202
  2.9788418733816080  1.2224124811087527 25.5894599720210252
  0.8188738175551553  2.4699592078507435 22.1484271284652046
