Hf I  Zr Te
 1.0000000000000000
     3.8478386383718721   -0.0000000000000000    0.0000000000000000
    -1.9239193191859361    3.3323260104933650    0.0000000000000000
     0.0000000000000000    0.0000000000000000   35.7569312356905300
 Hf  I   Zr  Te 
   1   2   1   2
Cartesian
  0.3106765301515528  1.3152848350874948 16.9476853944779791
  2.2345958493374889  2.4260601719186159 18.8953707810581477
  2.2345958493374889  2.4260601719186159 15.0000000000000000
  0.3559341584165161  1.5597574788954256 18.8953666736161381
  2.2798534776024524  2.6705328157265469 20.7569312356905300
  2.2798534776024524  2.6705328157265469 17.0338021115419309
