W  Se In O 
 1.0000000000000000
     3.3796437185072223    0.0000000000000000    0.0000000000000000
    -1.6898218592536112    2.9268573159677587    0.0000000000000000
     0.0000000000000000    0.0000000000000000   41.7518278558630982
 W   Se  In  O  
   1   2   2   2
Cartesian
 -1.0013453272795951  1.7086570757302078 16.6792764021964111
  0.6884765319740160  2.6842761810527938 18.3585528043928186
  0.6884765319740160  2.6842761810527938 15.0000000000000000
  1.8775835480920726  1.4731799413485192 23.1108930362094824
  1.8775835480920726  1.4731799413485192 25.9611582338307585
  0.1877616888384615  2.4487990466711054 22.3202234111902769
  0.1877616888384615  2.4487990466711054 26.7518278558630982
