I  Hg Tl Te Tl
 1.0000000000000000
     4.4876516078728201   -0.0000000000000011    0.0000000000000000
    -2.2438258026638711    3.9023191794417347    0.0000000000000000
     0.0000000000000036    0.0000000000000000   44.2218253754489012
 I   Hg  Tl  Te  Tl 
   2   2   1   2   1
Cartesian
  1.3410375938756036 -0.6870344548160164 15.0000000000000000
  1.3508642758138345  4.4803081871502668 20.9242317454966695
  1.3595118827550841  1.8824761593124852 19.3041194247390777
  1.3378164107814092  1.9069069872476658 16.6206582552528559
  0.8565326623513115  3.3382160390252205 27.8427301632179862
  3.1002407961211964  2.0368850785540893 23.5636832549466888
  0.8561680810994098  0.7362750775024820 29.2218253754489012
  0.8560474747949088  3.3387762977606692 24.9427737637793072
