Cd Cl Hg Cl
 1.0000000000000000
     3.9467972269916825    0.0000000000000000    0.0000000000000000
    -1.9733986134958417    3.4180266621607744    0.0000000000000000
     0.0000000000000000    0.0000000000000000   39.0714507082048996
 Cd  Cl  Hg  Cl 
   1   2   1   2
Cartesian
  0.5539467005020469  0.7182614151955126 16.4378714166122712
  2.5273453139978872  1.8576036359157708 17.8757428332245674
  0.5539467005020469  2.9969458566360294 15.0000000000000000
  0.6647703016151563  0.9202910122425880 22.6118464196205551
  2.6381689151109997  2.0596332329628466 24.0714507082048996
  0.6647703016151567  3.1989754536831052 21.1522421310362319
