Br Pt Mg Cl
 1.0000000000000000
     3.7145437227963107    0.0000194514724014    0.0000000000000000
    -1.8572550087737667    3.2169146135966500    0.0000000000000000
    -0.0000000000000002   -0.0000000000000000   40.3338020327913114
 Br  Pt  Mg  Cl 
   2   2   1   2
Cartesian
 -0.7354458453016248  2.0481801083034052 15.0000000000000000
  2.9789722336208069  2.0483398539451803 19.3348512724562163
  1.1216215529530096  0.9758940014869119 17.8923023562523369
  1.1216642201270328  3.1204728284456023 16.4415417443947689
  0.6720304220473463  0.2174283521273314 23.9608961680471779
  2.5293079009869652  1.2897461909744823 25.3338020327913114
  0.6720416571302728  2.3620445783492325 22.5879903033030480
