Cl Cd Zn Br
 1.0000000000000000
     3.8650879180146331    0.0012519794577290    0.0000000000000000
    -1.9314507769043385    3.3542552243722801    0.0000000000000000
    -0.0000000000000033   -0.0000000000000000  -42.0316834087021078
 Cl  Cd  Zn  Br 
   2   2   1   2
Cartesian
  1.4387340282242469 -0.0954457100432741 -20.5111542448488677
  1.4509186542163590  4.3548414354621325 -14.9999999999999964
  1.4511968497221033  2.1187540634218363 -16.4191145843245252
  1.4385127594439009  2.1406399906194702 -19.0922030609392834
  0.6505119745137076  0.2184872676552546 -25.5490848033705049
  2.5834203275553493  1.3374069954178336 -24.0664861980388807
  0.6512407625823599  2.4550747437226836 -27.0316834087021078
