F  Pt Se Ir
 1.0000000000000000
     3.4000717859088612    0.0000585085648160    0.0000000000000000
    -1.6999851606903058    2.9496175667183158    0.0000000000000000
    -0.0000000000000012   -0.0000000000000000   35.9790770786111196
 F   Pt  Se  Ir 
   2   2   2   2
Cartesian
 -0.7589149037572276  1.8765611758364333 14.9999999999999982
  2.6409298904767176  1.8772692171150636 18.7933056562285898
  0.9409509834019447  0.8937477356232226 17.6544166225755852
  0.9410861734629741  2.8600064915705037 16.1389253694520747
  1.1220875669223136  0.8216371299606686 16.2043333419642082
  1.1218674340531016  2.7872515850888204 20.9790770786111196
  1.1217649208210574  0.8239724065952323 19.5945868728344657
  1.1221901822008011  2.7849143341782434 17.5888544244176224
