Al Te Hg Br
 1.0000000000000000
     4.1292712782398127   -0.0000000000000000    0.0000000000000000
    -2.0646356391199063    3.5760538260731183    0.0000000000000000
     0.0000000000000000    0.0000000000000000   42.2918279359491152
 Al  Te  Hg  Br 
   2   2   1   2
Cartesian
  2.2541530496382349  1.4921002633018465 16.2795918494368586
  2.2541530496382349  1.4921002633018465 18.8534102305006570
  0.1895174105183285  2.6841182053262189 15.0000000000000000
  0.1895174105183284  2.6841182053262189 20.1330020799375866
  0.1455385423791629  0.6909081838772752 25.7024203598183121
  2.2101741814990676  1.8829261259016477 27.2918279359491152
  0.1455385423791626  3.0749440679260203 24.1130127836875161
