Pb S  Cd Cl
 1.0000000000000000
     3.9243563754110733   -0.0000000000000000    0.0000000000000000
    -1.9621781877055366    3.3985923146094104    0.0000000000000000
    -0.0000000000000000    0.0000000000000000   37.9872015964651766
 Pb  S   Cd  Cl 
   1   1   1   2
Cartesian
  2.0902725771646664  1.5066802035376345 16.4391638847389459
  0.1280943894591300  2.6395443084074377 15.0000000000000018
  0.7513260217584536  0.0925334852826201 21.5493301798528805
  2.7135042094639901  1.2253975901524234 22.9872015964651766
  0.7513260217584539  2.3582616950222270 20.1114587632406092
