Ga Te Hg Br
 1.0000000000000000
     4.1367256748299850   -0.0000000000000000    0.0000000000000000
    -2.0683628374149929    3.5825095228900921    0.0000000000000000
     0.0000000000000000    0.0000000000000000   42.1878264768661495
 Ga  Te  Hg  Br 
   2   2   1   2
Cartesian
  2.2566356383918689  1.5734665705711435 16.2730454743835011
  2.2566356383918689  1.5734665705711435 18.7468688976248288
  0.1882728009768771  2.7676364115345069 14.9999999999999982
  0.1882728009768770  2.7676364115345069 20.0199143598030744
  0.0810698858815641  0.6629457482584979 25.5984189007353464
  2.1494327232965551  1.8571155892218618 27.1878264768661495
  0.0810698858815634  3.0512854301852257 24.0090113246045505
