Ca I  Ca I 
 1.0000000000000000
     4.4672389245516939    0.0000000000000000    0.0000000000000000
    -2.2336194622758470    3.8687423934364418    0.0000000000000000
     0.0000000000000000    0.0000000000000000   41.0902704730728630
 Ca  I   Ca  I  
   1   2   1   2
Cartesian
 -0.3364824405836127  1.6453304922681291 16.9490723290323402
  1.8971370216922343  2.9349112900802758 18.8981446580646519
  1.8971370216922343  2.9349112900802758 15.0000000000000036
  0.3901638290093367  0.9686119954194852 24.3215935633745843
  2.6237832912851835  2.2581927932316326 26.0902704730728630
  0.3901638290093366  3.5477735910437800 22.5529166536762773
