Hg Te Pb I 
 1.0000000000000000
     4.6958229493109194    0.0000000000000000    0.0000000000000000
    -2.3479114746554597    4.0667019657772219    0.0000000000000000
     0.0000000000000000    0.0000000000000000  -37.7197113367296879
 Hg  Te  Pb  I  
   1   1   1   2
Cartesian
  3.0860153535062258  1.6078973954362072 -22.2070016965995052
  0.7381038788507668  2.9634647173619473 -22.7197113367296879
  0.6288325949107770  0.5770962165184423 -16.8674096684582864
  2.9767440695662373  1.9326635384441817 -14.9999999999999964
  0.6288325949107769  3.2882308603699211 -18.7348193369165692
