Al Te Tl Se
 1.0000000000000000
     4.1689763682861614    0.0000000000000000    0.0000000000000000
    -2.0844881841430807    3.6104394427128055    0.0000000000000000
     0.0000000000000000    0.0000000000000000   44.5898619867173238
 Al  Te  Tl  Se 
   2   2   2   2
Cartesian
  2.1864896839999273  1.4587857503202821 16.2795918494368586
  2.1864896839999273  1.4587857503202821 18.8534102305006570
  0.1020014998568463  2.6622655645578837 15.0000000000000000
  0.1020014998568463  2.6622655645578837 20.1330020799375866
  2.4436969829324684  1.6145448786760761 25.4088631201117074
  2.4436969829324684  1.6145448786760761 28.3020319042745889
  0.3592087987893876  2.8180246929136779 24.1210330786729656
  0.3592087987893876  2.8180246929136779 29.5898619867173309
