Zr Te Zn Br
 1.0000000000000000
     3.7733944982628760   -0.0000000000000000    0.0000000000000000
    -1.8866972491314384    3.2678554939960867    0.0000000000000000
    -0.0000000000000000    0.0000000000000000  -42.7556034671326799
 Zr  Te  Zn  Br 
   2   2   1   2
Cartesian
  2.1790699389590049  1.4176323652348224 -19.4970846171610646
  2.1790699389590049  1.4176323652348224 -16.8181936022182370
  0.2923726898275669  2.5069175299001851 -21.3152780539108875
  0.2923726898275670  2.5069175299001851 -14.9999999999999947
  0.2030599439645416  0.5871859364557419 -26.2730048618010699
  2.0897571930959784  1.6764711011211038 -24.7904062564694492
  0.2030599439645416  2.7657562657864658 -27.7556034671326728
