Ga O  Sn O 
 1.0000000000000000
     3.1762054982448307    0.0000000000000000    0.0000000000000000
    -1.5881027491224153    2.7506746491198335    0.0000000000000000
     0.0000000000000000    0.0000000000000000   39.9175938761357258
 Ga  O   Sn  O  
   2   2   1   2
Cartesian
  1.7245316008402900  1.2701431200418296 15.7491739274520537
  1.7245316008402900  1.2701431200418296 18.2624596435107662
  0.1364288517178747  2.1870346697484404 15.0000000000000000
  0.1364288517178747  2.1870346697484404 19.0116335709628004
 -0.5130180501895679  1.0303487603482320 23.9086315514633156
  1.0750846989328475  1.9472403100548430 24.9175938761357258
 -0.5130180501895679  2.8641318597614540 22.8996692267908983
