Ti Te Ti Te
 1.0000000000000000
     3.6724865754563840    0.0000000000000000    0.0000000000000000
    -1.8362432877281920    3.1804666694025450    0.0000000000000000
     0.0000000000000000    0.0000000000000000   43.1410014577777829
 Ti  Te  Ti  Te 
   1   2   2   2
Cartesian
 -0.2587113718299626  0.9905213538350366 16.7885301883608946
  1.5775319158982293  2.0506769103025522 18.5770603767261022
  1.5775319158982293  2.0506769103025522 15.0000000000000000
  2.0830464311659713  1.3633485338434630 24.0467235553231120
  2.0830464311659713  1.3633485338434630 26.4258399340723642
  0.2468031434377794  2.4235040903109777 22.3315650202655078
  0.2468031434377794  2.4235040903109777 28.1410014577777758
