Sn I  Ag
 1.0000000000000000
     4.4972687442303130    0.0000000000000000    0.0000000000000000
    -2.2486343708085013    3.8971791858140961    0.0000000000000000
     0.0000000000000000    0.0000000000000000   41.6017761846618086
 Sn  I   Ag 
   1   4   2
Cartesian
 -0.4891057972468492  1.6051868649877012 17.0138547965808051
  1.7595285753038590  2.9042465935923998 19.0277095931616067
  1.7595285753038590  2.9042465935923998 15.0000000000000000
  1.1654723473138284  0.9293561306310637 22.4550569890272200
  1.1652155836464662  3.5261114505665594 26.6017761846618157
  1.1637647731716778  0.9303209966488686 25.3571914596233228
  1.1669382504541932  3.5251399150143525 23.6986660001433940
