Pb O  Zr Se
 1.0000000000000000
     3.5943246816657028   -0.0000000000000000    0.0000000000000000
    -1.7971623408328514    3.1127764837719143    0.0000000000000000
    -0.0000000000000000    0.0000000000000000   40.5366265942448649
 Pb  O   Zr  Se 
   1   1   2   2
Cartesian
  1.8385576605725471  1.4629617792936691 15.9428404019710115
  0.0413953197396965  2.5005539405509736 15.0000000000000000
  2.1080379876846984  1.1643686221594602 21.1777782568122390
  2.1080379876846984  1.1643686221594602 23.9240207654958255
  0.3108756468518473  2.2019607834167649 19.5651721706136463
  0.3108756468518473  2.2019607834167649 25.5366265942448685
