Si S  Ga N 
 1.0000000000000000
     3.2866241442864621   -0.0000000000000001    0.0000000000000000
    -1.6431313313854052    2.8465968651763651    0.0000000000000000
    -0.0000000000000011   -0.0000000000000019  -36.5742671029380091
 Si  S   Ga  N  
   1   2   1   1
Cartesian
  2.7084940678824645  0.7185635148569888 -16.3256800457213203
  1.0655691966855028  1.6676907402880941 -17.6519019534943382
 -0.5780758650993328  2.6169301334146611 -15.0000000000000018
  0.1765161222099744  2.3903792362164258 -21.5742671029380126
  1.8197679474339306  1.4415136144909704 -21.5742671029380126
