Cl Cd Tl S  Tl
 1.0000000000000000
     3.9965215949449555    0.0012519794577290    0.0000000000000000
    -1.9971676153694995    3.4680801275067354    0.0000000000000000
     0.0000000000000035    0.0000000000000000   43.9773542867569986
 Cl  Cd  Tl  S   Tl 
   2   2   1   2   1
Cartesian
  1.1321811788175526 -0.8731809973418041 15.0000000000000018
  1.1447308355695940  3.7280960268351304 20.5111542448488748
  1.1450432683688732  1.4161423425765307 19.0920396605243496
  1.1319276085757572  1.4387709582068680 16.4189511839095879
  0.8626653641181916  3.1845836913873931 27.7804969009254208
  2.8604180037184861  2.0285175990036910 23.6996068746000184
  0.8616156905402010  0.8718167794982090 28.9773542867569915
  0.8622010919564990  3.1850426080512428 24.8964621559114683
