Sn Te Br Hg
 1.0000000000000000
     4.1760273141320718    0.0010674728082233    0.0000000000000000
    -2.0870815791012065    3.6230434913325515    0.0000000000000000
    -0.0000000000000033   -0.0000000000000000  -40.5168193162415520
 Sn  Te  Br  Hg 
   1   1   2   2
Cartesian
  2.8200354156806586  1.6481257552141464 -23.8306587656769082
  0.7323324512695659  2.8554510947222553 -25.5168193162415520
  1.0755349061690247 -0.2450409417688770 -20.7696522731609790
  1.0861408553756478  4.5640329947049185 -14.9999999999999964
  1.0906387457074678  2.1457698100927161 -16.5517606558400381
  1.0715922668576827  2.1729037185478233 -19.2183829790537679
