Ge O  Pd O 
 1.0000000000000000
     3.0523448540110922   -0.0000000000000000    0.0000000000000000
    -1.5261724270055461    2.6434081846843140    0.0000000000000000
    -0.0000000000000000    0.0000000000000000   36.7130937606949246
 Ge  O   Pd  O  
   1   1   1   2
Cartesian
  1.7165703272762598  1.3460532825061424 15.9944417982831233
  0.1903979002707136  2.2271893440675803 15.0000000000000000
  0.5359928312755085  0.2620636231382424 20.7340736418627571
  2.0621652582810546  1.1431996846996804 21.7130937606949246
  0.5359928312755085  2.0243357462611185 19.7550535230305826
