Cl Pt Cd F 
 1.0000000000000000
     3.5717281972666801    0.0000000000000001    0.0000000000000000
    -1.7858640975961959    3.0937751044364958    0.0000000000000000
     0.0000000000000001   -0.0000000000000000   39.5446220835235849
 Cl  Pt  Cd  F  
   2   2   1   2
Cartesian
 -0.7108176828322834  1.7726439557015521 15.0000000000000000
  2.8598139654376094  1.7737863717218350 19.1833300419795165
  1.0747574078688260  0.7424029258054017 17.8345471777233797
  1.0749707397137898  2.8044946582091290 16.3507841280650084
  0.6708586555713216  0.0893629269550983 23.5274604014944089
  2.4567227545503747  1.1206212951005969 24.5446220835235849
  0.6708586562627480  2.1518796632460950 22.5102987194652613
