Pb O  Ti Te
 1.0000000000000000
     3.6005535957003829   -0.0000000000000000    0.0000000000000000
    -1.8002767978501915    3.1181708815639362    0.0000000000000000
    -0.0000000000000000    0.0000000000000000   40.2465993755834717
 Pb  O   Ti  Te 
   1   1   2   2
Cartesian
  1.8809129815456331  1.2915402855060116 15.9428404019710150
  0.0806361836954421  2.3309305793606567 15.0000000000000036
  1.9777468041624924  1.1936365939127407 21.1523214731288078
  1.9777468041624924  1.1936365939127407 23.5314378518780600
  0.1774700063123008  2.2330268877673856 19.4371629380712037
  0.1774700063123008  2.2330268877673856 25.2465993755834717
