Pb S  I  Pt
 1.0000000000000000
     3.9559093529071627    0.0000237985287992    0.0000000000000000
    -1.9779340577496343    3.4259507980248194    0.0000000000000000
     0.0000000000000002    0.0000000000000000  -38.2903600652736245
 Pb  S   I   Pt 
   1   1   2   2
Cartesian
  2.2157682770544582  1.9066864911681467 -21.8511961805346751
  0.2378204735021927  3.0486621576668198 -23.2903600652736174
 -0.9268400146032130  1.5967346416276653 -19.3964869774338879
  3.0289156552410184  1.5969291690769660 -14.9999999999999964
  1.0508809563470964  0.4547767713990821 -16.4888916939597650
  1.0509280290570022  2.7387167720840959 -17.9084028584398851
