Bi O  Ga Se
 1.0000000000000000
     3.9003798698621308   -0.0000000000000000    0.0000000000000000
    -1.9501899349310654    3.3778280517100479    0.0000000000000000
     0.0000000000000000    0.0000000000000000   42.2177779494776644
 Bi  O   Ga  Se 
   2   2   2   2
Cartesian
  2.1463555883283920  1.1883857330093990 15.1279491455499375
  2.1463555883283920  1.1883857330093990 18.2805653489927167
  0.1961656533973267  2.3143284169127480 15.0000000000000000
  0.1961656533973266  2.3143284169127480 18.4085143927414876
  2.3076365392099967  1.5504851266468627 23.5651498853690882
  2.3076365392099967  1.5504851266468627 26.0407050951612717
  0.3574466042789314  2.6764278105502122 22.3880770310514592
  0.3574466042789314  2.6764278105502122 27.2177779494776644
