S  Ti Mg Br
 1.0000000000000000
     3.9007253942544580   -0.0000000000000000    0.0000000000000000
    -1.9503626960082410    3.3789730083189546    0.0000000000000000
     0.0000000000000000    0.0000000000000000   40.1101393022495074
 S   Ti  Mg  Br 
   2   2   1   2
Cartesian
  1.1979015036731266  0.7632427783066622 15.0000000000000000
  1.1981117132274788  3.0152975835509914 18.2247483793411575
  1.1978332762137152  0.7632504621962863 17.4814467457056111
  1.1981799679515790  3.0152899031866376 15.7433429186812166
  0.6953422183795053 -0.1065513267371174 23.6031136538337556
  2.6457049158797279  1.0197730093692019 25.1101393022495145
  0.6953422191254972  2.1460973454755212 22.0960880054179931
