Sn O  Hf O 
 1.0000000000000000
     3.2985232827527557   -0.0000000000000000    0.0000000000000000
    -1.6492616413763779    2.8566049578383268    0.0000000000000000
     0.0000000000000000    0.0000000000000000  -36.5412839049930724
 Sn  O   Hf  O  
   1   1   1   2
Cartesian
  2.1186786505609385  1.5578404388857885 -20.5298902863749220
  0.4694170091845601  2.5100420914985637 -21.5412839049930653
  0.4905289940063112  0.3581055275798596 -15.9724295917334516
  2.1397906353826892  1.3103071801926351 -14.9999999999999929
  0.4905289940063112  2.2625088328054108 -16.9448591834669102
