Sn Te S  Hf
 1.0000000000000000
     4.1603796267561073   -0.0000000000000000    0.0000000000000000
    -2.0801898121933569    3.6035270759493803    0.0000000000000000
    -0.0000000000000000    0.0000000000000000   38.8385383252653611
 Sn  Te  S   Hf 
   1   1   2   2
Cartesian
  2.5393337619104370  1.2436676645034146 16.6861605505646438
  0.4591439489272827  2.4448433564865413 15.0000000000000000
  1.3782535917596899  1.3441810043271218 20.5130516786829844
  1.3785787420149014  3.7460156545775902 23.8385383252653611
  1.3783809757344199  1.3440562023037381 23.1176328139812739
  1.3784513480705065  3.7461404618145879 21.2340480241270413
