Pb Se Pb Se
 1.0000000000000000
     4.0384949209439052    0.0000000000000000    0.0000000000000000
    -2.0192474604719526    3.4974391945918417    0.0000000000000000
    -0.0000000000000000    0.0000000000000000   38.3762548400076966
 Pb  Se  Pb  Se 
   1   1   1   2
Cartesian
  2.1900769449750852  1.1546256206469852 16.5482420467417022
  0.1708294845031326  2.3204386855109318 15.0000000000000000
  0.8617486750462869  0.2580889000880221 21.7071556835072457
  2.8809961355182394  1.4239019649519697 23.3762548400076966
  0.8617486750462866  2.5897150298159173 20.0380565270067876
