Ga S  Zr Te
 1.0000000000000000
     3.6970047205465275   -0.0000000000000000    0.0000000000000000
    -1.8485023602732638    3.2017000059042822    0.0000000000000000
     0.0000000000000000    0.0000000000000000   44.9669520600216757
 Ga  S   Zr  Te 
   2   2   2   2
Cartesian
  1.9223216894405439  1.2761805613435728 16.0940275853641523
  1.9223216894405439  1.2761805613435728 18.5727461466075034
  0.0738193291672804  2.3434138966450000 14.9999999999999964
  0.0738193291672804  2.3434138966450000 19.6667737319714959
  2.2000006168855339  1.4736692526410979 25.4698674428606111
  2.2000006168855339  1.4736692526410979 28.1487584578034387
  0.3514982566122702  2.5409025879425253 23.6516740061107882
  0.3514982566122702  2.5409025879425253 29.9669520600216828
