Hf I  Ge Se
 1.0000000000000000
     3.7196855233638129    0.0000000000000000    0.0000000000000000
    -1.8598427616819064    3.2213421573222769    0.0000000000000000
    -0.0000000000000000    0.0000000000000000   39.2833278474763077
 Hf  I   Ge  Se 
   1   2   1   1
Cartesian
 -0.1028826491635771  1.3112336995830156 22.3356424608961390
  1.7569601125183292  2.3850144186904410 24.2833278474763041
  1.7569601125183292  2.3850144186904410 20.3879570664181564
  2.1141469996436046  1.8022580434322071 16.4473597337136148
  0.2543042379616988  2.8760387625396326 15.0000000000000036
