Sn Se Hg Cl
 1.0000000000000000
     3.9504022764754545   -0.0000000000000000    0.0000000000000000
    -1.9752011382377272    3.4211487265956206    0.0000000000000000
     0.0000000000000000    0.0000000000000000   37.9538659734329116
 Sn  Se  Hg  Cl 
   1   1   1   2
Cartesian
  2.1471878553795927  1.1391396336150632 16.5586206887278209
  0.1719867171418658  2.2795225424802696 15.0000000000000000
  0.8878423329646132  0.3838787354469160 21.4942616848485670
  2.8630434712023431  1.5242616443121233 22.9538659734329116
  0.8878423329646139  2.6646445531773306 20.0346573962642438
