W  Se Sn O 
 1.0000000000000000
     3.2692573462777372    0.0000000000000000    0.0000000000000000
    -1.6346286731388686    2.8312599133854195    0.0000000000000000
     0.0000000000000000    0.0000000000000000   39.2667947901549610
 W   Se  Sn  O  
   1   2   1   2
Cartesian
 -0.5308878044631765  1.1765684485088346 16.6792764021964111
  1.1037408686756920  2.1203217529706411 18.3585528043928221
  1.1037408686756920  2.1203217529706411 15.0000000000000000
  0.4398544263940304  0.8877596936091575 23.2578324654825437
  2.0744830995328991  1.8315129980709641 24.2667947901549610
  0.4398544263940304  2.7752663025327702 22.2488701408101335
