S  Hf Mg I 
 1.0000000000000000
     4.1776756587625190    0.0000000000000000    0.0000000000000000
    -2.0888378281965627    3.6185058790516047    0.0000000000000000
    -0.0000000000000000    0.0000000000000000   40.5531712725649385
 S   Hf  Mg  I  
   2   2   1   2
Cartesian
  1.2302571249922878  0.9037503635652785 15.0000000000000018
  1.2305836269980768  3.3155687346403564 18.3254866465823767
  1.2303850385430426  0.9036250427765585 17.6045811352982859
  1.2304557034362100  3.3156940606643621 15.7209963454440551
  0.7550614043662235  0.0535431311321085 23.8788536158970714
  2.8438992341423810  1.2597117574826444 25.5531712725649385
  0.7550614051560213  2.4658803838331802 22.2045359592292044
