Ti I  Mg Cl
 1.0000000000000000
     3.7209247387059210    0.0000000000000000    0.0000000000000000
    -1.8604623693529607    3.2224153492893017    0.0000000000000000
     0.0000000000000000    0.0000000000000000   40.1962183657318164
 Ti  I   Mg  Cl 
   1   2   1   2
Cartesian
 -0.5238613429896584  1.2715534029297064 16.8143657812576208
  1.3366010263633017  2.3456918526928070 18.6287315661405444
  1.3366010263633017  2.3456918526928070 15.0000000000000000
  0.4399599796561931  0.9663040809259407 23.8233125009876794
  2.3004223490091533  2.0404425306890412 25.1962183657318164
  0.4399599796561936  3.1145809804521423 22.4504066362435495
