Ge Br Ge Br Ge Cl
 1.0000000000000000
     4.2398311466965950   -0.0506467540195989    0.0000000000000001
    -2.0761382558138446    3.6974178537060225    0.0000000000000001
    -0.0000000000000030   -0.0000000000000014  -36.6703739685232719
 Ge  Br  Ge  Br  Ge  Cl 
   1   1   1   1   2   2
Cartesian
  1.8965891027405515  3.2839503257254674 -19.3202317491464015
 -0.2430369932344974  2.0827803891942169 -16.2908830589805369
 -0.2385021863526549  2.0850826736794730 -18.6410077480516030
 -2.3432832403025787  3.3319101567683047 -21.6703739685232648
  3.6579379133064207 -2.0375408382869127 -17.8618516262418936
  3.6871227953659571  0.4105221461330008 -17.1900136243284187
  3.6579379133064203 -2.0375408382869131 -20.0518652577973988
  3.6871227953659571  0.4105221461330008 -15.0000000000000000
