Ti Te Ru Cl
 1.0000000000000000
     3.6006811896202509    0.0000000000000000    0.0000000000000000
    -1.8003405948101254    3.1182813811399104    0.0000000000000000
     0.0000000000000000    0.0000000000000000   41.7712311438885706
 Ti  Te  Ru  Cl 
   2   2   1   2
Cartesian
  2.0843768597370596  1.4177970250101131 22.6769532414339139
  2.0843768597370596  1.4177970250101131 25.0560696201831661
  0.2840362649269342  2.4572241520567495 20.9617947063763097
  0.2840362649269342  2.4572241520567495 26.7712311438885706
  0.1964427928092718  0.5445385742707466 16.2273761390970321
  1.9967833876193986  1.5839657013173833 17.4547522887126263
  0.1964427928092733  2.6233928283640200 14.9999999999999982
