C  F  C  H 
 1.0000000000000000
     2.5672961904733933    0.0000000000000000    0.0000000000000000
    -1.2836480952343110    2.2233437199877706    0.0000000000000000
     0.0000000000000024    0.0000000000000042   39.8046235217218793
 C   F   C   H  
   2   2   2   2
Cartesian
  0.8754605717836489 -0.2561796721384150 16.3753676657295628
  0.8754605678619668  1.2260494745200987 16.8678502200032376
  0.8754605717836487 -0.2561796721384154 15.0000000000000018
  0.8754605678619669  1.2260494745200987 18.2432179175849214
 -0.1160630897802432  2.5300906969881956 23.2357180988570775
  1.1675850052497927  1.7889761236589385 23.6944000184241119
  1.1675850054540673  0.3067469770004246 22.1254975960102627
  1.1675850052497927  1.7889761236589388 24.8046235217218793
