Sn Te Ge I 
 1.0000000000000000
     4.2366066007779066   -0.0000000000000000    0.0000000000000000
    -2.1183033003889538    3.6690089421145045    0.0000000000000000
    -0.0000000000000000    0.0000000000000000   38.6674685879294913
 Sn  Te  Ge  I  
   1   1   1   2
Cartesian
  2.3522032143986848  1.7059914627037738 16.6861605505646438
  0.2338999140097315  2.9289944434086088 15.0000000000000000
  0.7176280197252900  0.3270156802875435 21.9226926939482425
  2.8359313201142435  1.5500186609923778 23.6674685879294842
  0.7176280197252898  2.7730216416972122 20.1779167999669902
