Cd F  Ru Cl
 1.0000000000000000
     3.5526388494473249   -0.0000000000000000    0.0000000000000000
    -1.7763194247236602    3.0766754940929077    0.0000000000000000
     0.0000000000000002   -0.0000000000000000   37.8478627387883293
 Cd  F   Ru  Cl 
   1   2   1   2
Cartesian
  0.5807356969423521  0.6934796461078272 16.0171616820291440
  2.3570551216660136  1.7190381441387963 17.0343233640583236
  0.5807356969423504  2.7445966421697654 14.9999999999999982
  0.4722891730045717  0.7463266682562995 21.6204865891727351
  2.2486085977282357  1.7718851662872686 22.8478627387883293
  0.4722891730045747  2.7974436643182377 20.3931104500756994
