Si F  S  Zn
 1.0000000000000000
     3.9334604398217126    0.0000000000000000    0.0000000000000000
    -1.9667302187881486    3.4067324368880993    0.0000000000000000
     0.0000000000000012    0.0000000000000022   40.5689545599936423
 Si  F   S   Zn 
   2   2   2   2
Cartesian
  1.1616376211189055  0.9113602387387760 16.6424290354395481
  1.1616376199108853  3.1825151966641747 17.3462560958598786
  1.1616376211189055  0.9113602387387756 15.0000000000000000
  1.1616376199108853  3.1825151966641756 18.9886851313004463
  1.1571303335220811  0.8009506536747931 22.4482119180905713
  1.1572012858996661  3.0719075303925321 25.5689545599936423
  1.1570029445836267  0.8009992619781074 25.0296720070999186
  1.1573286899227480  3.0718590516417730 22.9876403225698667
