Hf Te Ga Se
 1.0000000000000000
     3.8668831258963028   -0.0000000000000000    0.0000000000000000
    -1.9334415629481514    3.3488190204915780    0.0000000000000000
    -0.0000000000000000    0.0000000000000000   42.3105839788593840
 Hf  Te  Ga  Se 
   1   2   2   2
Cartesian
 -0.4927875901223175  1.4513027687741489 16.8494380278571079
  1.4406539728258336  2.5675757756046749 18.6988761198817670
  1.4406539728258336  2.5675757756046749 15.0000000000000000
  2.0701215870603513  1.4410634517803409 23.6579559147508078
  2.0701215870603513  1.4410634517803409 26.1335111245429914
  0.1366800241122000  2.5573364586108669 22.4808830604331789
  0.1366800241122000  2.5573364586108669 27.3105839788593840
