Zr Br In O 
 1.0000000000000000
     3.5012850875837973    0.0000000000000000    0.0000000000000000
    -1.7506425437918987    3.0322018317391910    0.0000000000000000
     0.0000000000000000    0.0000000000000000   41.9659475184574120
 Zr  Br  In  O  
   1   2   2   2
Cartesian
 -0.7329067031865618  1.6232017358029358 16.8261924305408108
  1.0177358406053369  2.6339356797159996 18.6523848530272502
  1.0177358406053369  2.6339356797159996 15.0000000000000000
  1.8299041019734557  1.4032320519850026 23.3250126988038033
  1.8299041019734557  1.4032320519850026 26.1752778964250794
  0.0792615581815571  2.4139659958980659 22.5343430737845942
  0.0792615581815571  2.4139659958980659 26.9659475184574191
