In S  Cd Cl
 1.0000000000000000
     3.9070670293308636    0.0000000000000000    0.0000000000000000
    -1.9535335146654318    3.3836193016891274    0.0000000000000000
     0.0000000000000000    0.0000000000000000   42.0324148915826683
 In  S   Cd  Cl 
   2   2   1   2
Cartesian
  2.1714917632449846  1.4710069547252378 16.1777227309346578
  2.1714917632449846  1.4710069547252378 18.9966802391880591
  0.2179582485795531  2.5988800552882800 15.0000000000000000
  0.2179582485795531  2.5988800552882800 20.1744029701158176
  0.0099409960498227  0.6646917014485740 25.5945434749703757
  1.9634745107152540  1.7925648020116167 27.0324148915826683
  0.0099409960498229  2.9204379025746592 24.1566720583581045
