Al Se Hf S 
 1.0000000000000000
     3.7149513935195491   -0.0000000000000000    0.0000000000000000
    -1.8574756967597745    3.2172422806123304    0.0000000000000000
    -0.0000000000000000    0.0000000000000000   41.8064389377542085
 Al  Se  Hf  S  
   2   2   1   2
Cartesian
  2.0364767336513787  1.4263434570526599 16.1674793328362689
  2.0364767336513787  1.4263434570526599 18.7553318157724647
  0.1790010368916046  2.4987575505901036 15.0000000000000000
  0.1790010368916046  2.4987575505901036 19.9228111486087727
  0.0601630019509420  0.6408995934205450 25.3583346357630148
  1.9176386987107161  1.7133136869579886 26.8064389377542085
  0.0601630019509420  2.7857277804954323 23.9102303337721551
