Br Hg S  Cd
 1.0000000000000000
     4.2473876628064273    0.0010674728082233    0.0000000000000000
    -2.1227617522058440    3.6863091302046369    0.0000000000000000
     0.0000000000000035    0.0000000000000000   42.3837617123656401
 Br  Hg  S   Cd 
   2   2   2   2
Cartesian
  1.2311549491690028 -0.3200255768771933 15.0000000000000000
  1.2419209971946668  4.5730120684784490 20.7696522731609825
  1.2465063765614468  2.1125273335807107 19.2178916173209409
  1.2271343104051058  2.1401350699899324 16.5512692941072110
  1.2997896066380412  0.8699006643012183 24.1463533085182860
  1.3007252406542049  3.3265796943639647 27.3837617123656401
  1.2994232112088988  0.8699700870294281 26.9597031540809553
  1.3010918591596572  3.3265102939225826 24.5703042011778550
