Ca Br Sr Cl
 1.0000000000000000
     4.1716026822067001    0.0000000000000000    0.0000000000000000
    -2.0858013411033500    3.6127138972863042    0.0000000000000000
     0.0000000000000000    0.0000000000000000   40.8225762240804499
 Ca  Br  Sr  Cl 
   1   2   1   2
Cartesian
  0.2045460220107343  1.5325799248560565 16.7571598031843862
  2.2903473631140843  2.7368178906181582 18.5143196063686446
  2.2903473631140843  2.7368178906181582 15.0000000000000000
  0.3424473214104504  1.6379035667431290 24.1666004860609718
  2.4282486625138002  2.8421415325052304 25.8225762240804499
  2.4282486625138002  2.8421415325052304 22.5106247480414865
