Pb Se Pt Te
 1.0000000000000000
     4.0075139964346667    0.0000000000000000    0.0000000000000000
    -2.0037569982173333    3.4706089269341218    0.0000000000000000
     0.0000000000000000    0.0000000000000000   39.4649314027547859
 Pb  Se  Pt  Te 
   1   2   1   2
Cartesian
  0.4999709236387813  0.7120290777166900 16.6690991565004580
  2.5037279218561146  1.8688987200280642 18.3381983130009090
  0.4999709236387810  3.0257683623394382 15.0000000000000036
  0.6937008395567150  0.7756266296670853 23.0777171732012718
  2.6974578377740479  1.9324962719784591 24.4649314027547859
  0.6937008395567150  3.0893659142898331 21.6905029446042477
