Pb O  Zn Cl
 1.0000000000000000
     3.5958944387527838   -0.0000000000000000    0.0000000000000000
    -1.7979472193763923    3.1141359332870966    0.0000000000000000
    -0.0000000000000000    0.0000000000000000   37.2966371277769895
 Pb  O   Zn  Cl 
   1   1   1   2
Cartesian
  2.0449480590498781  1.5709443018854188 15.9428404019710133
  0.2470008396734862  2.6089896129811176 15.0000000000000000
  0.5012849447584767  0.2185415086152833 20.9291701391948735
  2.2992321641348679  1.2565868197109817 22.2966371277769895
  0.5012849447584765  2.2946321308066802 19.5617031506127361
