Bi O  In Se
 1.0000000000000000
     4.0252843888480232   -0.0000000000000000    0.0000000000000000
    -2.0126421944240116    3.4859985381993059    0.0000000000000000
     0.0000000000000000    0.0000000000000000   42.7566512467696995
 Bi  O   In  Se 
   2   2   2   2
Cartesian
  2.2605611400310606  1.2017800331840474 15.1279491455499375
  2.2605611400310606  1.2017800331840474 18.2805653489927167
  0.2479189456070491  2.3637795459171493 15.0000000000000000
  0.2479189456070491  2.3637795459171493 18.4085143927414876
  2.3173584377417842  1.5949243979894461 23.6658753096410557
  2.3173584377417842  1.5949243979894461 26.4801210230273227
  0.3047162433177731  2.7569239107225481 22.3893450635009259
  0.3047162433177731  2.7569239107225481 27.7566512467696924
