S  Zn Mg Br
 1.0000000000000000
     3.9030753150548745    0.0000000000000000    0.0000000000000000
    -1.9515376564071067    3.3804181469439847    0.0000000000000000
    -0.0000000000000000    0.0000000000000000   40.0447752807681425
 S   Zn  Mg  Br 
   2   2   1   2
Cartesian
  1.1469231542398131  0.6440859939501871 15.0000000000000018
  1.1469935585299389  2.8975015407244684 18.1207426419030782
  1.1467967493531495  0.6441342267931414 17.5814600890093473
  1.1471199783847048  2.8974534364333793 15.5394284044792990
  0.7632060666899312 -0.1089226825595291 23.5377496323523836
  2.7147437245908099  1.0178833664218001 25.0447752807681425
  0.7632060674368180  2.1446894154031293 22.0307239839366211
