In Se Tl S 
 1.0000000000000000
     4.0658488453709962   -0.0000000000000000    0.0000000000000000
    -2.0329244226854981    3.5211283880389099    0.0000000000000000
     0.0000000000000000    0.0000000000000000   44.6358651502595478
 In  Se  Tl  S  
   2   2   2   2
Cartesian
  2.2162184775739244  1.2386259485449485 16.2765302461401262
  2.2162184775739244  1.2386259485449485 19.0907759595263933
  0.1832940548884268  2.4123354112245852 15.0000000000000000
  0.1832940548884268  2.4123354112245852 20.3673061832687665
  2.2912831261463635  1.5522395343317659 25.5521053420042570
  2.2912831261463635  1.5522395343317659 28.4380228337943954
  0.2583587034608655  2.7259489970114021 24.3542630255395807
  0.2583587034608654  2.7259489970114021 29.6358651502595478
