Pb Cl S  Zr
 1.0000000000000000
     4.1877144957357100    0.0000000000000000    0.0000000000000000
    -2.0938572466696366    3.6271688711442835    0.0000000000000000
    -0.0000000000000000    0.0000000000000000   40.0842914527259992
 Pb  Cl  S   Zr 
   1   2   2   2
Cartesian
 -0.4986676203636704  1.6864425623129859 16.7004028302812557
  1.5951896279035911  2.8954988526944136 18.4008056605625079
  1.5951896279035911  2.8954988526944136 15.0000000000000036
  1.1655982978293145  0.7607989381324348 21.7564297366143684
  1.1658829724307149  3.1784563141958597 25.0842914527259921
  1.1656683816827116  0.7607165635773733 24.3802383393560902
  1.1658128776037373  3.1785386917082765 22.4605208563168368
