Sn S  Ga Se
 1.0000000000000000
     3.7882386280598190   -0.0000000000000000    0.0000000000000000
    -1.8941193140299095    3.2807108874973121    0.0000000000000000
    -0.0000000000000000    0.0000000000000000   39.9789027721932939
 Sn  S   Ga  Se 
   1   1   2   2
Cartesian
  1.7779216110447893  1.7953033644148282 16.4598471617338120
 -0.1161977029851203  2.8888736602472651 15.0000000000000000
  2.2655857966363664  1.3427362609806910 21.3262747080847213
  2.2655857966363664  1.3427362609806910 23.8018299178769084
  0.3714664826064573  2.4363065568131281 20.1492018537670958
  0.3714664826064573  2.4363065568131281 24.9789027721933010
