I  Pt Sn Se
 1.0000000000000000
     3.9137732007745263    0.0000237985287992    0.0000000000000000
    -1.9568659816833160    3.3894598198602308    0.0000000000000000
    -0.0000000000000002   -0.0000000000000000   40.8139036734568350
 I   Pt  Sn  Se 
   2   2   1   2
Cartesian
 -0.8286555517940316  1.6562355277581571 15.0000000000000000
  3.0849656028752479  1.6564282367115779 19.3964869774338879
  1.1279997591861550  0.5264411273497108 17.9075952834741194
  1.1280464769140783  2.7860541834498180 16.4880841189940028
  0.8462395225130834  0.1353600298462644 24.2209726538826295
  2.8031329958016622  1.2651958354855408 25.8139036734568350
  0.8462532683157149  2.3950078425960180 22.6280416343083672
