Tl Te Pb I 
 1.0000000000000000
     4.5855759568205201    0.0000000000000000    0.0000000000000000
    -2.2927879784102605    3.9712252695897048    0.0000000000000000
    -0.0000000000000000    0.0000000000000000   43.3578005715035033
 Tl  Te  Pb  I  
   2   2   1   2
Cartesian
  2.3366054789539721  1.7233857535812944 16.3836225870481016
  2.3366054789539721  1.7233857535812944 19.2838467229453521
  0.0438175005437128  3.0471275101111956 15.0000000000000036
  0.0438175005437127  3.0471275101111956 20.6674692707617176
  0.0441350218872838  0.9914027998699608 26.4903909030452098
  2.3369230002975443  2.3151445563998614 28.3578005715035033
  0.0441350218872834  3.6388863129297615 24.6229812345869306
