Br Cu Se Zn
 1.0000000000000000
     4.0139808910586732    0.0000000000000000    0.0000000000000000
    -2.0069904432364867    3.4771866794625277    0.0000000000000000
     0.0000000000000000    0.0000000000000000   40.3414451647438881
 Br  Cu  Se  Zn 
   2   2   2   2
Cartesian
  1.1386656141742448  0.8291706427074256 15.0000000000000000
  1.1395983894888433  3.1463306489741742 18.6331282326220560
  1.1383127558505817  0.8294019462972312 17.4857902901367552
  1.1399491086525435  3.1461001850042676 16.1476785051133049
  1.3055220954852156  0.8851180042444642 21.9281415740529049
  1.3056258033707355  3.2031110548566826 25.3414451647438881
  1.3054230498080583  0.8851720770827236 24.5838387556628248
  1.3057248200897802  3.2030569800644177 22.6861231761411446
