S  Zn Bi O 
 1.0000000000000000
     3.9494705914662904    0.0000000000000000    0.0000000000000000
    -1.9747352946128145    3.4205976349318710    0.0000000000000000
    -0.0000000000000000    0.0000000000000000   40.4824294618672127
 S   Zn  Bi  O  
   2   2   2   2
Cartesian
  0.2842631013295251  0.7921317839932485 15.0000000000000000
  0.2843343424961108  3.0723313198947886 18.1207426419030746
  0.2841351938867527  0.7921805901294611 17.5814600890093473
  0.2844622650849088  3.0722826438384025 15.5394284044792990
  2.3262448006976477  1.3217563320791419 22.2018642146756626
  2.3262448006976477  1.3217563320791419 25.3544804181184418
  0.3515095053379463  2.4619555437230991 22.0739150691257215
  0.3515095053379463  2.4619555437230991 25.4824294618672127
