Al Se Mg Cl
 1.0000000000000000
     3.7253234362402923   -0.0000000000000000    0.0000000000000000
    -1.8626617181201466    3.2262247330976317    0.0000000000000000
    -0.0000000000000000    0.0000000000000000   41.6609970726430987
 Al  Se  Mg  Cl 
   2   2   1   2
Cartesian
  2.0695946880868625  1.4421526692305493 16.1674793328362689
  2.0695946880868625  1.4421526692305493 18.7553318157724647
  0.2069329699667163  2.5175609135964265 15.0000000000000000
  0.2069329699667163  2.5175609135964265 19.9228111486087727
  0.0769245253440901  0.5760865571557662 25.2880912078989653
  1.9395862434642361  1.6514948015216435 26.6609970726430987
  0.0769245253440904  2.7269030458875210 23.9151853431548318
