Sr Br Ge Cl
 1.0000000000000000
     4.3106385860253074   -0.0000000000000002    0.0000000000000000
    -2.1553192930126537    3.7331225220324260    0.0000000000000000
     0.0000000000000010    0.0000000000000017   42.0327081359903900
 Sr  Br  Ge  Cl 
   1   2   2   2
Cartesian
 -0.2652007227128317  1.5576968371967614 16.8028165994893754
  1.8901185702998220  2.8020710112075702 18.6056331989787509
  1.8901185702998220  2.8020710112075697 15.0000000000000000
  1.1108448442340599  0.8014456066700092 24.1708565097484964
  1.1108448479991404  3.2901939546916279 24.8426945116619713
  1.1108448442340599  0.8014456066700087 21.9808428781929912
  1.1108448479991404  3.2901939546916279 27.0327081359903900
