Ti Te Sn S 
 1.0000000000000000
     3.7444106612877288   -0.0000000000000000    0.0000000000000000
    -1.8722053306438644    3.2427547548764615    0.0000000000000000
    -0.0000000000000000    0.0000000000000000   38.7324691241907004
 Ti  Te  Sn  S  
   1   2   1   1
Cartesian
 -0.5463557794331759  1.6632972495300085 16.7885301883608946
  1.3258495512106885  2.7442155011554954 18.5770603767261022
  1.3258495512106885  2.7442155011554954 15.0000000000000000
  1.7125133109696460  1.2883761463979755 23.7324691241907004
 -0.1596920196742183  2.3692943980234622 22.2726219624568884
