Sn S  Sn Se
 1.0000000000000000
     3.8084412475586360   -0.0000000000000000    0.0000000000000000
    -1.9042206237793180    3.2982068692062789    0.0000000000000000
    -0.0000000000000000    0.0000000000000000   38.1935046345462013
 Sn  S   Sn  Se 
   1   1   1   2
Cartesian
  2.1965270889699053  1.5227245294770213 16.4598471617338120
  0.2923064651905872  2.6221268192124478 15.0000000000000000
  0.6507482844285590  0.3369795179986579 21.6005736149719958
  2.5549689082078770  1.4363818077340842 23.1935046345462013
  0.6507482844285590  2.5357840974695107 20.0076425953977299
