F  Pd Pb O 
 1.0000000000000000
     3.3483201056782241   -0.0000000000000000    0.0000000000000000
    -1.6741600518981976    2.9014312552011736    0.0000000000000000
    -0.0000000000000012    0.0000000000000000   39.3678727078736586
 F   Pd  Pb  O  
   2   2   1   2
Cartesian
 -0.5993500967600032  1.6859031692069830 15.0000000000000000
  2.7472721132711477  1.6899347698811276 18.8818537777082369
  1.0738378861652575  0.7215162753442762 17.7492457296891502
  1.0740013750521598  2.6545994454489885 16.1325574662624049
  0.6019954592006663 -0.0141948556720982 23.3092535517289789
  2.2761555123534167  0.9529488960616262 24.3678727078736586
  0.6019954598279427  1.9200926477953510 22.2506343955842993
