Ni S  Si S 
 1.0000000000000000
     3.3292232638895314   -0.0000000000000001    0.0000000000000000
    -1.6644308911869401    2.8834887849314752    0.0000000000000000
     0.0000000000000012    0.0000000000000021   38.9900733381936888
 Ni  S   Si  S  
   1   2   1   2
Cartesian
 -0.5003774367157505  0.5862728452895449 16.1754339282252602
  1.1642944421482904  1.5474357736000368 17.3508678564505132
 -0.5002569428772001  2.5085987019105289 15.0000000000000036
  2.6189077890246111  0.8185032795419758 22.6643932924723757
  0.9546875955797592  1.7799312019443840 21.3381713846993577
 -0.7102621231949481  2.7414727457365475 23.9900733381936959
