Pb Br Ge Br Ge Br
 1.0000000000000000
     4.2775500647035400   -0.0506467540195987    0.0000000000000001
    -2.0949977148173167    3.7300833949022203    0.0000000000000001
     0.0000000000000022   -0.0000000000000000   37.8398854954986277
 Pb  Br  Ge  Br  Ge  Br 
   1   2   1   1   1   1
Cartesian
  3.3450771721077239  1.3300063128126451 16.8414801415537845
  5.4984446436376446  2.5396029417669861 18.6829602831084465
  5.4984446436376446  2.5396029417669861 15.0000000000000000
  0.6651149749125307  1.2834591706380230 19.8105368053327631
 -1.4934158446588934  0.0713782802950134 22.8398854954986277
 -1.4888409445456456  0.0737015239123042 20.4897608064275616
 -3.6124763676507055  1.3313950988730694 17.4603945859558998
