I  Pt Zn I 
 1.0000000000000000
     4.0313001071391490    0.0000237985287992    0.0000000000000000
    -2.0156294348656276    3.4912411064001887    0.0000000000000000
    -0.0000000000000002   -0.0000000000000000   40.6621334853096101
 I   Pt  Zn  I  
   2   2   1   2
Cartesian
 -0.8185863061546622  2.0226782935155678 15.0000000000000000
  3.2125571890476974  2.0228760746500996 19.3964869774338879
  1.1968257189892744  0.8589573263404109 17.9075952834741194
  1.1968734268392680  3.1864235297655958 16.4880841189940028
  0.6563165985952724  0.3265674612055289 24.0347277167972315
  2.6719735250661625  1.4903303623581248 25.6621334853096137
  0.6563303443979033  2.6540694649819212 22.4073219482848458
