Ge Se Ti Te
 1.0000000000000000
     3.6372046219890084    0.0000000000000000    0.0000000000000000
    -1.8186023109945042    3.1499116014046575    0.0000000000000000
    -0.0000000000000000    0.0000000000000000   40.6715728013514024
 Ge  Se  Ti  Te 
   1   1   2   2
Cartesian
  1.9256561513336112  1.2424049887119055 16.4473597337136113
  0.1070538403391072  2.2923755225134586 15.0000000000000000
  1.9272453508404583  1.2110150241735029 21.5772948988967421
  1.9272453508404583  1.2110150241735029 23.9564112776459943
  0.1086430398459544  2.2609855579750548 19.8621363638391344
  0.1086430398459544  2.2609855579750548 25.6715728013514024
