Se Cd Ge I 
 1.0000000000000000
     4.3765417967502103   -0.0000000000000000    0.0000000000000000
    -2.1882708971033940    3.7914194552900842    0.0000000000000000
     0.0000000000000000    0.0000000000000000   40.9580232315464201
 Se  Cd  Ge  I  
   2   2   1   2
Cartesian
  1.3470310397978305  0.8117911478179811 15.0000000000000000
  1.3473820323376888  3.3384758411295912 18.5885916162562381
  1.3466387259655099  0.8119932731491601 17.8903171033845076
  1.3477762643500466  3.3382731357697453 15.6980628372997089
  0.7381772361276807  0.0495577877027495 24.2132473375651820
  2.9264481349266900  1.3133642727994437 25.9580232315464272
  0.7381772369754882  2.5771707578961376 22.4684714435839332
