I  Cu Se Ti
 1.0000000000000000
     4.1093440661386555    0.0000000000000000    0.0000000000000000
    -2.0546720307220054    3.5597252702412048    0.0000000000000000
     0.0000000000000000    0.0000000000000000   40.7093867580805124
 I   Cu  Se  Ti 
   2   2   2   2
Cartesian
  1.3685838176364791  0.8803849635002281 15.0000000000000000
  1.3685837986546407  3.2535351555267824 18.8558029306399995
  1.3685838176364793  0.8803849635002285 17.6212990317599960
  1.3685837986546405  3.2535351555267815 16.2370991544799992
  1.2166149497883336  0.9905830984746559 22.1500553002132321
  1.2167249251429779  3.3631327607590098 25.7093867580805124
  1.2164171759892981  0.9906521422670196 24.7833734362818845
  1.2169227820856856  3.3630637442007751 23.0761399236279914
