Mg Cl Pt Se
 1.0000000000000000
     3.7105929586309534    0.0000000000000000    0.0000000000000000
    -1.8552964793154769    3.2134677652780659    0.0000000000000000
     0.0000000000000000    0.0000000000000000   38.7008234187644646
 Mg  Cl  Pt  Se 
   1   2   1   2
Cartesian
  0.5736806967005510  0.6570657563866787 16.3729058647441299
  2.4289771760160277  1.7282216781460340 17.7458117294882669
  0.5736806967005516  2.7993775999053896 15.0000000000000000
  0.5666024210273932  0.7704551148413923 22.3910146969567165
  2.4218989003428701  1.8416110366007477 23.7008234187644646
  0.5666024210273929  2.9127669583601032 21.0812059690593330
