W  Te Ru Cl
 1.0000000000000000
     3.5716226469259507   -0.0000000000000000    0.0000000000000000
    -1.7858113234629758    3.0931159449696919    0.0000000000000000
     0.0000000000000000    0.0000000000000000   39.9516335845998611
 W   Te  Ru  Cl 
   1   2   1   2
Cartesian
 -0.3324480646129277  1.1203907278821568 23.1396713713663971
  1.4533632588500476  2.1514293762053875 24.9516335845998611
  1.4533632588500476  2.1514293762053875 21.3277091581329294
  0.6679493858025651  1.0587301650443108 16.2273761390970357
  2.4537607092655414  2.0897688133675416 17.4547522887126298
  0.6679493858025664  3.1208074616907719 15.0000000000000000
