Hf Te Br Pt
 1.0000000000000000
     3.8327461019140809    0.0000194514724014    0.0000000000000000
    -1.9163561983326516    3.3192808767003985    0.0000000000000000
    -0.0000000000000002   -0.0000000000000000   41.2581517289231812
 Hf  Te  Br  Pt 
   1   2   2   2
Cartesian
 -0.3835495314823336  1.4896560242171799 16.8494380278571114
  1.5328291370161695  2.5960959507655805 18.6988761198817670
  1.5328291370161695  2.5960959507655805 15.0000000000000018
 -0.6974477415649311  1.8007539094757434 21.9233004564669614
  3.1351687182744694  1.8009181194616222 26.2581517289231812
  1.2187145186798207  0.6943461057727403 24.8156028127192982
  1.2187581860765861  2.9071679180407655 23.3648422008617302
