Se Ir Cd F 
 1.0000000000000000
     3.4601154056918082   -0.0000000000000000    0.0000000000000000
    -1.7300577018725152    3.0014618266886810    0.0000000000000000
     0.0000000000000002   -0.0000000000000000   40.7509718157268992
 Se  Ir  Cd  F  
   2   2   1   2
Cartesian
  1.0556579697033306  0.6726550076247111 14.9999999999999982
  1.0553995455579126  2.6727984567203760 19.7747437366469114
  1.0553295849542357  0.6750313125741737 18.3902535308702575
  1.0557280341900972  2.6704201428119694 16.3845210824534142
  0.7029773603991687  0.0932654415610932 24.7338101336977232
  2.4330350635695339  1.0937527171239867 25.7509718157268992
  0.7029773610480917  2.0942399926868807 23.7166484516685756
