Ge Te Pb S 
 1.0000000000000000
     3.8957267994411175   -0.0000000000000000    0.0000000000000000
    -1.9478633997205588    3.3737983745198479    0.0000000000000000
     0.0000000000000000    0.0000000000000000   38.1462061713307818
 Ge  Te  Pb  S  
   1   1   1   2
Cartesian
  2.4011972823545347  1.2409627020511975 16.5598212339094246
  0.4533338826339763  2.3655621602244796 15.0000000000000000
  0.7915270419061852  0.0617808752988933 21.6042158132931519
  2.7393904416267438  1.1863803334721759 23.1462061713307818
  0.7915270419061852  2.3109797916454586 20.0622254552555148
