Hg Te Sn I 
 1.0000000000000000
     4.6536972702670720    0.0000000000000000    0.0000000000000000
    -2.3268486351335365    4.0302200575735805    0.0000000000000000
     0.0000000000000000    0.0000000000000000  -37.6765823465248815
 Hg  Te  Sn  I  
   1   1   1   2
Cartesian
  3.0553299846904260  1.5915988515252850 -22.1638727063947059
  0.7284813495568903  2.9350055373831454 -22.6765823465248850
  0.6359584739378068  0.5774133525811755 -16.8458621158032997
  2.9628071090713433  1.9208200384390357 -15.0000000000000000
  0.6359584739378064  3.2642267242968956 -18.6917242316065852
