Sr Cl Br Cd
 1.0000000000000000
     4.1642947401634522    0.0014024937248978    0.0000000000000000
    -2.0809227645798947    3.6122028541659348    0.0000000000000000
    -0.0000000000000032   -0.0000000000000000  -41.8266776210915197
 Sr  Cl  Br  Cd 
   1   2   2   2
Cartesian
 -0.3642714014906859  1.5724431378854704 -25.1707018830720344
  1.7182841704249843  2.7774457517573805 -23.5147261450525491
  1.7182841704249838  2.7774457517573805 -26.8266776210915197
  1.3905020683221694 -0.0681712758193790 -20.7228492099077997
  1.4039688121537428  4.7241593849194699 -14.9999999999999964
  1.4037951238771509  2.3162076616051213 -16.5217900061855048
  1.3902559543974298  2.3401198811126793 -19.2013233282757021
