Ti Te Mg Cl
 1.0000000000000000
     3.7048527800064419    0.0000000000000000    0.0000000000000000
    -1.8524263900032212    3.2084966247669788    0.0000000000000000
     0.0000000000000000    0.0000000000000000   40.0994572371217117
 Ti  Te  Mg  Cl 
   1   2   1   2
Cartesian
 -0.3532889575294403  1.2052474165151872 16.7885301883608946
  1.4991374324737805  2.2747462914375136 18.5770603767261022
  1.4991374324737805  2.2747462914375136 15.0000000000000000
  0.4124010490192656  0.8843355061086782 23.7265513723775747
  2.2648274390224863  1.9538343810310046 25.0994572371217117
  0.4124010490192661  3.0233332559533310 22.3536455076334448
