Mo Te Pt S 
 1.0000000000000000
     3.5605122280624242    0.0000000000000000    0.0000000000000000
    -1.7802561140312121    3.0834940399871922    0.0000000000000000
     0.0000000000000000    0.0000000000000000   34.8752620428484263
 Mo  Te  Pt  S  
   1   2   1   2
Cartesian
 -0.6310510275230951  1.4415192097663543 18.0701620428484269
  1.1492050865081167  2.4693505564287515 19.8752620428484263
  1.1492050865081167  2.4693505564287515 16.2650620428484274
  0.3765508976485815  1.0518815070918626 16.2320273695004715
  2.1568070116797937  2.0797128537542600 17.4640547390009431
  0.3765508976485813  3.1075442004166574 15.0000000000000036
