Zr Te In Se
 1.0000000000000000
     3.9983834907514746   -0.0000000000000000    0.0000000000000000
    -1.9991917453757373    3.4627016770630785    0.0000000000000000
     0.0000000000000000    0.0000000000000000   42.7581991308705227
 Zr  Te  In  Se 
   1   2   2   2
Cartesian
 -0.2632944467310483  1.2645826984636896 16.8615645620742107
  1.7358972986446892  2.4188165908180488 18.7231291241485991
  1.7358972986446892  2.4188165908180488 15.0000000000000000
  2.1467062941813588  1.4303819405849185 23.6674231937418824
  2.1467062941813588  1.4303819405849185 26.4816689071281459
  0.1475145488056221  2.5846158329392783 22.3908929476017562
  0.1475145488056222  2.5846158329392783 27.7581991308705227
