Zr O  Ga N 
 1.0000000000000000
     3.2686311263365937    0.0000000000000000    0.0000000000000000
    -1.6343155631682968    2.8307175910080327    0.0000000000000000
     0.0000000000000000    0.0000000000000000   35.9042510101164254
 Zr  O   Ga  N  
   1   2   1   1
Cartesian
  0.5969525732636649  0.2532459788445194 15.9613319724315765
  2.2312681364319618  1.1968185091805301 16.9226639448631531
  0.5969525732636649  2.1403910395165409 15.0000000000000000
  0.2595929961554540  2.3371343295686282 20.9042510101164254
  1.8939085593237510  1.3935617992326170 20.9042510101164254
