Cl Ag I  Cd
 1.0000000000000000
     4.4005892383184033    0.0008383076656587    0.0000000000000000
    -2.1995626381854976    3.8263477950629396    0.0000000000000000
     0.0000000000000028    0.0000000000000000   36.7462253846898221
 Cl  Ag  I   Cd 
   2   2   2   2
Cartesian
  1.5694425121228324  0.9828818251637705 18.4593688429712230
  1.5654175627790210  3.5288013338183650 21.7462253846898221
  1.5648715582016219  0.9850483356154174 21.4368710353035645
  1.5700243340725819  3.5266160309726891 18.7674173033074894
  1.4901816455029062 -0.5102279463734707 14.9999999999999982
  1.5018135577429665  4.5598824419691812 20.9102076548876994
  1.5070387903899634  2.0114092024551087 19.2986420562647361
  1.4880577890873981  2.0360365958346276 16.6116177631989359
