Cl Ag Te Zn
 1.0000000000000000
     4.3648158438957427    0.0000000000000000    0.0000000000000000
    -2.1824079194546195    3.7886375883376795    0.0000000000000000
    -0.0000000000000000    0.0000000000000000   40.7324362987261281
 Cl  Ag  Te  Zn 
   2   2   2   2
Cartesian
  1.3024349282557208  1.0010217487988540 14.9999999999999982
  1.2979596774409563  3.5215749292210510 18.2868565417185991
  1.2979007214589255  1.0031675346130935 17.9775021923323379
  1.3025294140091617  3.5194105315016535 15.3080484603362645
  1.4722994859182714  1.1026073609425371 21.9726889325787660
  1.4724075324424273  3.6280837115048912 25.7324362987261210
  1.4721641376489585  1.1026947550006412 24.7836474275850343
  1.4725426479894557  3.6279959495835024 22.9218291395836964
