Cr Te Ge S 
 1.0000000000000000
     3.4568632049793666    0.0000000000000000    0.0000000000000000
    -1.7284316024896833    2.9937313529198244    0.0000000000000000
    -0.0000000000000000    0.0000000000000000   40.0649420048683425
 Cr  Te  Ge  S  
   1   2   1   2
Cartesian
 -0.4405751530772930  1.1091204508383534 16.7062363127964808
  1.2878564494123901  2.1070309018116280 18.4124726255929616
  1.2878564494123901  2.1070309018116280 14.9999999999999982
  0.5533726296056587  0.8698845573760650 23.6679328790318486
  2.2818042320953422  1.8677950083493395 25.0649420048683425
  0.5533726296056587  2.8657054593226139 22.2709237531951629
