Pb Cl Te Zn
 1.0000000000000000
     4.2547256160327960   -0.0000000000000000    0.0000000000000000
    -2.1273628067799022    3.6852260035949573    0.0000000000000000
    -0.0000000000000000    0.0000000000000000   40.5368195164297731
 Pb  Cl  Te  Zn 
   1   2   2   2
Cartesian
 -0.5271331416466682  1.6358135487281880 16.7004028302812522
  1.6002296667818949  2.8642222165931739 18.4008056605625043
  1.6002296667818949  2.8642222165931739 15.0000000000000000
  1.3134787659327107  0.7389100102637441 21.7770721502824181
  1.3135840864907506  3.1954530027118668 25.5368195164297731
  1.3133468314435486  0.7389950188843832 24.5880306452886899
  1.3137157941273947  3.1953676362688417 22.7262123572873449
