Sn S  Zn Br
 1.0000000000000000
     3.7470315619879644    0.0000000000000000    0.0000000000000000
    -1.8735157809939826    3.2450245214636628    0.0000000000000000
     0.0000000000000000    0.0000000000000000   39.3082142352141091
 Sn  S   Zn  Br 
   1   2   1   2
Cartesian
  0.4953157140477732  0.6911106118992896 16.4775714027844238
  2.3688314950417553  1.7727854523871771 17.9551428055688476
  0.4953157140477730  2.8544602928750646 15.0000000000000000
  0.5393597362568519  0.6914041167773280 22.8256156298824884
  2.4128755172508329  1.7730789572652155 24.3082142352141055
  0.5393597362568519  2.8547537977531028 21.3430170245508855
