Ge Cl I  Cu
 1.0000000000000000
     4.2047144487563095   -0.0000000000000002    0.0000000000000000
    -2.1023572231851739    3.6413895262172193    0.0000000000000000
    -0.0000000000000010   -0.0000000000000017  -42.1930112952321892
 Ge  Cl  I   Cu 
   2   2   2   2
Cartesian
  1.5176857195781572  0.9936665764645267 -25.0029976636766875
  1.5176857240460397  3.4212595939426742 -24.3311596617632091
  1.5176857195781572  0.9936665764645263 -27.1930112952321892
  1.5176857240460397  3.4212595939426742 -22.1411460374347904
  1.1184139902308188  1.1749930822604635 -18.8558029306399995
  1.1184139700025673  3.6025861118765752 -15.0000000000000000
  1.1184139902308192  1.1749930822604637 -16.2345038988799999
  1.1184139700025673  3.6025861118765747 -17.6187037761600038
