Ti Se Ru Cl
 1.0000000000000000
     3.5442274816644472   -0.0000000000000000    0.0000000000000000
    -1.7721137408322236    3.0693910359123562    0.0000000000000000
     0.0000000000000000    0.0000000000000000   39.5274602128773580
 Ti  Se  Ru  Cl 
   1   2   1   2
Cartesian
 -0.4978988918865715  1.1631248893321517 16.6199398271809429
  1.2742148489456522  2.1862552346362705 18.2398796543619497
  1.2742148489456522  2.1862552346362705 14.9999999999999982
  0.4845653076848709  0.9691353900278266 23.3000840632617638
  2.2566790485170962  1.9922657353319451 24.5274602128773580
  0.4845653076848724  3.0153960806360631 22.0727079241647317
