Hg Se I  Ag
 1.0000000000000000
     4.5194178899642807   -0.0000000000000000    0.0000000000000000
    -2.2597089436754851    3.9163609086918356    0.0000000000000000
     0.0000000000000000    0.0000000000000000   38.2356637288477259
 Hg  Se  I   Ag 
   1   1   2   2
Cartesian
  2.7003526351386693  1.8020315104646161 15.3939973822751650
  0.4406436905920814  3.1074851466952280 14.9999999999999982
  1.7561537705385122  0.5956795912011504 19.0889445332131302
  1.7558957423002524  3.2052160121723925 23.2356637288477259
  1.7544377865568159  0.5966492062416934 21.9910790038092330
  1.7576268932792294  3.2042396947703300 20.3325535443293077
