Mo O  Ti F 
 1.0000000000000000
     2.8328313430649228    0.0000000000000000    0.0000000000000000
    -1.4164156715324614    2.4533039077310113    0.0000000000000000
     0.0000000000000001    0.0000000000000000   39.0473217719704309
 Mo  O   Ti  F  
   1   2   1   2
Cartesian
  0.2421087759758002  1.1227213783691323 16.2250003583693214
  1.6585244475082614  1.9404893476128029 17.4500007167386428
  1.6585244475082614  1.9404893476128029 15.0000000000000000
  0.3657995111939574  1.2224094987522622 22.7468103290098043
  1.7822151827264183  2.0401774679959326 24.0473217719704309
  1.7822151827264183  2.0401774679959326 21.4462991403882377
