Pd O  B  P 
 1.0000000000000000
     3.1548240259218057    0.0000000000000000    0.0000000000000000
    -1.5774120129609028    2.7321577509177799    0.0000000000000000
     0.0000000000000000    0.0000000000000000  -35.9494803084047447
 Pd  O   B   P  
   1   2   1   1
Cartesian
  0.4886092742260070  0.3627074349829703 -15.9790201188321657
  2.0660212871869095  1.2734266852888969 -14.9999999999999964
  0.4886092742260070  2.1841459355948238 -16.9580402376643349
  0.7352829788974883  2.0896950693164307 -20.9494803084047447
  2.3126949918583914  1.1789758190105042 -20.9494803084047447
