Si Se Zn Cl
 1.0000000000000000
     3.5535569907839113   -0.0000000000000001    0.0000000000000000
    -1.7765866286209826    3.0780574505095748    0.0000000000000000
    -0.0000000000000012   -0.0000000000000021  -39.4004520649377739
 Si  Se  Zn  Cl 
   1   2   1   2
Cartesian
  0.5135890541645588  0.8720603592319675 -16.4396250289556463
  2.2909627240149839  1.8972549574526956 -17.8792530868155630
  0.5137711341950008  2.9233402579318439 -15.0000000000000036
  0.9230204015941098 -0.3539067318624438 -23.0329850763556401
  2.6998628525763895  0.6721124183074142 -21.6655180877735241
  0.9231483127747585  1.6981315684772718 -24.4004520649377774
