Hf Te Zr Se
 1.0000000000000000
     3.8520841786045761    0.0000000000000000    0.0000000000000000
    -1.9260420893022880    3.3360027561876757    0.0000000000000000
     0.0000000000000000    0.0000000000000000  -40.6012507307765560
 Hf  Te  Zr  Se 
   1   2   1   2
Cartesian
 -0.4777914258443866  1.4583846388197645 -16.8494380920246556
  1.4482506634579013  2.5703855575489900 -14.9999999999999982
  1.4482506634579013  2.5703855575489900 -18.6988761198817635
  0.8412907311339783  0.9403894007745822 -24.0206454256444140
  2.7673328204362662  2.0523903195038073 -22.4400401205123856
  0.8412907311339783  3.1643912382330321 -25.6012507307765631
