Pb Te Se Hf
 1.0000000000000000
     4.2947556846989592    0.0000000000000000    0.0000000000000000
    -2.1473778411311857    3.7200714001106827    0.0000000000000000
     0.0000000000000000    0.0000000000000000   39.1672976706779252
 Pb  Te  Se  Hf 
   1   1   2   2
Cartesian
  2.6402233055697968  1.2838705580481280 16.6845068820464775
  0.4928454636264150  2.5238943580850219 15.0000000000000000
  1.3686554965529840  1.3824598329777187 20.4760211411420592
  1.3689214169498423  3.8619314553776647 24.1672976706779252
  1.3687172031523234  1.3823920436633419 23.2446694923296704
  1.3688597860105289  3.8619992974917432 21.3990882465207939
