Pt S  Zn Cl
 1.0000000000000000
     3.5862535689294939    0.0000000000000000    0.0000000000000000
    -1.7931267844647472    3.1057866951055488    0.0000000000000000
     0.0000000000000000    0.0000000000000000   38.6238635283744998
 Pt  S   Zn  Cl 
   1   2   1   2
Cartesian
  0.5236648872112605  0.6533438172078478 16.2320273695004715
  2.3167916716760066  1.6886060489096977 17.4640547390009395
  0.5236648872112601  2.7238682806115473 15.0000000000000000
  0.6974291703780882  0.8997606221479659 22.2563965397923837
  2.4905559548428342  1.9350228538498151 23.6238635283744998
  0.6974291703780882  2.9702850855516640 20.8889295512102464
