Pb S  Sn Se
 1.0000000000000000
     3.9279614248948449   -0.0000000000000000    0.0000000000000000
    -1.9639807124474224    3.4017143790442566    0.0000000000000000
    -0.0000000000000000    0.0000000000000000   36.4567394859972538
 Pb  S   Sn  Se 
   1   1   1   1
Cartesian
  2.0939148412328832  1.3857146604627646 16.4391638847389423
  0.1299341287854610  2.5196194534775165 15.0000000000000000
  2.2741236846894859  1.1766023460149193 21.4567394859972538
  0.3101429722420638  2.3105071390296712 19.8981187972694364
