Hf Te Sn Se
 1.0000000000000000
     3.9080700021627051   -0.0000000000000000    0.0000000000000000
    -1.9540350010813525    3.3844879016408083    0.0000000000000000
    -0.0000000000000000    0.0000000000000000   39.0277403620015377
 Hf  Te  Sn  Se 
   1   2   1   1
Cartesian
 -0.4394737533206554  1.4875147171551655 16.8494380278571043
  1.5145612477606969  2.6156773510354348 18.6988761198817635
  1.5145612477606969  2.6156773510354348 14.9999999999999964
  2.1375419857494045  1.3634549001110414 24.0277403620015377
  0.1835069846680524  2.4916175339913109 22.4691196732737168
