Pb O  Ga S 
 1.0000000000000000
     3.6191207058934571   -0.0000000000000000    0.0000000000000000
    -1.8095603529467286    3.1342504706660037    0.0000000000000000
     0.0000000000000000    0.0000000000000000  -39.2039575496935555
 Pb  O   Ga  S  
   1   1   2   2
Cartesian
  1.8984644115717808  1.6477160640156303 -23.2611171477225440
  0.0889040586250525  2.6924662209042980 -24.2039575496935555
  2.0773043089703869  1.2501052445849767 -18.5727461466073436
  2.0773043089703869  1.2501052445849767 -16.0940275853639925
  0.2677439560236587  2.2948554014736446 -19.6667737319714959
  0.2677439560236587  2.2948554014736446 -15.0000000000000000
