W  Te Si Se
 1.0000000000000000
     3.5291576050372102   -0.0000000000000001    0.0000000000000000
    -1.7643869357476318    3.0569269626161955    0.0000000000000000
     0.0000000000000012    0.0000000000000021   40.2572933386128113
 W   Te  Si  Se 
   1   2   1   2
Cartesian
 -0.7859457495302921  1.3430810555789632 16.8119622132334641
  0.9786970085786377  2.3620567097843619 18.6239244264669317
  0.9786970085786375  2.3620567097843614 15.0000000000000000
  0.5448291077798013  0.9768775260332723 23.8176683096571722
  2.3099994369560450  1.9950342887378134 22.3780402517972554
  0.5450108155522153  3.0140756391387207 25.2572933386128113
