Pb Te Sn Te
 1.0000000000000000
     4.2483366516916785   -0.0000000000000000    0.0000000000000000
    -2.1241683258458393    3.6791674641935073    0.0000000000000000
    -0.0000000000000000    0.0000000000000000   36.7828567071010539
 Pb  Te  Sn  Te 
   1   1   1   1
Cartesian
  2.1640391263262018  1.4314232721102820 16.6845068820464775
  0.0398708004803625  2.6578124268414509 15.0000000000000000
  2.4127759028666258  1.1202673127113039 21.7828567071010539
  0.2886075770207865  2.3466564674424726 20.0966961565364137
