Zr Te Sn Se
 1.0000000000000000
     3.8067614646207844   -0.0000000000000000    0.0000000000000000
    -1.9033807323103922    3.2967521345092559    0.0000000000000000
    -0.0000000000000000    0.0000000000000000  -42.9754388581721756
 Zr  Te  Sn  Se 
   2   2   1   2
Cartesian
  2.2118447626262525  1.4263765055911148 -19.4970846171610717
  2.2118447626262525  1.4263765055911148 -16.8181936022182441
  0.3084640303158608  2.5252938837608672 -21.3152780539108946
  0.3084640303158608  2.5252938837608672 -15.0000000000000018
  0.1970203923460096  0.5774123878010043 -26.3825078385979097
  2.1004011246564014  1.6763297659707561 -24.7895768190237078
  0.1970203923460096  2.7752471441405082 -27.9754388581721756
