Sn Se Mg Br
 1.0000000000000000
     3.8951714697171171   -0.0000000000000000    0.0000000000000000
    -1.9475857348585586    3.3733174448713918    0.0000000000000000
     0.0000000000000000    0.0000000000000000   38.0711441681543263
 Sn  Se  Mg  Br 
   1   1   1   2
Cartesian
  2.2238201192081561  1.7349487442838467 16.5586206887278209
  0.2762343843495980  2.8593878925743104 15.0000000000000000
  0.4220527826610878  0.2055821728353999 21.5641185197385674
  2.3696385175196446  1.3300213211258651 23.0711441681543263
  0.4220527826610877  2.4544604694163303 20.0570928713228049
