Cl Cd Hg Cl
 1.0000000000000000
     3.9630318880857875    0.0012519794577290    0.0000000000000000
    -1.9804227619399157    3.4390771906014019    0.0000000000000000
     0.0000000000000033    0.0000000000000000   42.0375127837663456
 Cl  Cd  Hg  Cl 
   2   2   1   2
Cartesian
  1.1772044165699762 -0.3250348171589575 15.0000000000000018
  1.1896610623568666  4.2377695195492127 20.5111542448488748
  1.1899647713879997  1.9451468059825772 19.0920396605243461
  1.1769590768403320  1.9675861823062173 16.4189511839095843
  0.6944011029722550  0.2887942736192975 25.5779084951820010
  2.6762814410494773  1.4359879901249180 27.0375127837663456
  0.6951298910409076  2.5819297271728097 24.1183042065976778
