Cl Pd Zr Se
 1.0000000000000000
     3.7315888483062021   -0.0000057074165551    0.0000000000000000
    -1.8657993676578020    3.2316246927688623    0.0000000000000000
    -0.0000000000000001    0.0000000000000000   40.3642551896435720
 Cl  Pd  Zr  Se 
   2   2   1   2
Cartesian
 -0.7191050507024281  2.1071365279513303 15.0000000000000000
  3.0125367003303949  2.1070408461110408 19.0602727285529099
  1.1464682648197682  1.0297080538249253 17.7820690337428502
  1.1464608550003053  3.1841483319823647 16.2762156910758300
  0.5424780633290880  0.0906868626073429 23.7836498845115472
  2.4082708396472885  1.1678912885859267 25.3642551896435720
  0.5424747676592874  2.2451014219810657 22.2030445793793945
