Ti Br Si Se
 1.0000000000000000
     3.4901414206471504   -0.0000000000000001    0.0000000000000000
    -1.7448788435526019    3.0231379557756659    0.0000000000000000
     0.0000000000000012    0.0000000000000021   40.1028591569581181
 Ti  Br  Si  Se 
   1   2   1   2
Cartesian
 -0.3968012744698177  1.3062191067972817 16.6938534583278368
  1.3483333914440820  2.3139317587225041 18.3877069173080088
  1.3483333914440818  2.3139317587225037 15.0000000000000000
  0.6095698053752016  0.7826110946118854 23.6632341280024754
  2.3552262092886762  1.7895139064564711 22.2236060701425586
  0.6097509178831275  2.7972915284201081 25.1028591569581181
