In Te Cd I 
 1.0000000000000000
     4.3471194961143533    0.0000000000000000    0.0000000000000000
    -2.1735597480571771    3.7647159169216375    0.0000000000000000
    -0.0000000000000000    0.0000000000000000   42.9825606973707934
 In  Te  Cd  I  
   2   2   1   2
Cartesian
  2.2122698087275836  1.6570664503011376 16.3809543382022547
  2.2122698087275836  1.6570664503011376 19.1931420891205420
  0.0387100606704067  2.9119717559416833 15.0000000000000000
  0.0387100606704066  2.9119717559416833 20.5740964273085289
  0.0552126164971815  0.9157253811068885 26.2620442755928849
  2.2287723645543580  2.1706306867474345 27.9825606973707863
  0.0552126164971813  3.4255359923879802 24.5415278538149693
