Ge F  Hg I 
 1.0000000000000000
     4.3187195477415470   -0.0000000000000000    0.0000000000000000
    -2.1593597738707739    3.7401208401653241    0.0000000000000000
     0.0000000000000013    0.0000000000000022   41.5192642387647979
 Ge  F   Hg  I  
   2   2   1   2
Cartesian
  1.3227090045351131  0.9016414782078647 16.7809067055787082
  1.3227090083072517  3.3950553716514125 17.3739865908562336
  1.3227090045351131  0.9016414782078641 15.0000000000000000
  1.3227090083072521  3.3950553716514129 19.1548933276439897
  0.6752270168999930  0.1659929270321976 24.7760137228549908
  2.8345867907707682  1.4126998737539727 26.5192642387648050
  0.6752270168999928  2.6594068204757475 23.0327632069451766
