Zr I  Zr Te
 1.0000000000000000
     3.8757918252796095    0.0000000000000000    0.0000000000000000
    -1.9378959126398048    3.3565341804722006    0.0000000000000000
     0.0000000000000000    0.0000000000000000   41.5993529819092132
 Zr  I   Zr  Te 
   1   2   1   2
Cartesian
  0.1543169079024916  1.5215973237692264 16.9391452359630961
  2.0922128205422967  2.6404420505932933 18.8782904725522265
  2.0922128205422967  2.6404420505932933 15.0000000000000000
  0.2771327867783461  1.4548305908258574 24.7377884198348248
  2.2150286994181512  2.5736753176499239 26.5993529819092132
  2.2150286994181512  2.5736753176499239 22.8762238577606141
