Hg Cl Pb Se
 1.0000000000000000
     3.9966011830277406    0.0000000000000000    0.0000000000000000
    -1.9983005915138703    3.4611581532969637    0.0000000000000000
     0.0000000000000000    0.0000000000000000   39.4999097244190978
 Hg  Cl  Pb  Se 
   1   2   1   2
Cartesian
  0.5990626967023309  0.7478700116525043 16.4596042885843232
  2.5973632882162039  1.9015893960848262 17.9192085771686678
  0.5990626967023317  3.0553087805171484 15.0000000000000000
  0.6959200409404575  0.9605722324287862 22.8308105679186397
  2.6942206324543276  2.1142916168611077 24.4999097244190978
  0.6959200409404573  3.2680110012934289 21.1617114114181888
