Hg F  Zr S 
 1.0000000000000000
     3.6707043620785971   -0.0000000000000000    0.0000000000000000
    -1.8353521810392968    3.1789232273424153    0.0000000000000000
     0.0000000000000002    0.0000000000000000   38.4643965345619989
 Hg  F   Zr  S  
   1   2   1   2
Cartesian
  0.4367448859679205  0.7399351696179579 16.0286721523601834
  2.2720970670072100  1.7995762453987627 17.0573443047203988
  0.4367448859679189  2.8592173211795675 14.9999999999999982
  0.5887340453568882  0.5787292955424839 22.0185140918179343
  2.4240862263961871  1.6383703713232887 23.4643965345619989
  0.5887340453568892  2.6980114471040935 20.5726316490738093
