Ge Se Zr Se
 1.0000000000000000
     3.6309757079543292    0.0000000000000000    0.0000000000000000
    -1.8154878539771646    3.1445172036126356    0.0000000000000000
    -0.0000000000000000    0.0000000000000000   40.9981446587730787
 Ge  Se  Zr  Se 
   1   1   2   2
Cartesian
  1.8124539554329164  1.3839449430700230 16.4473597337136113
 -0.0030338985442478  2.4321173442742352 15.0000000000000000
  2.0714287905140889  1.2118060811622409 21.6392963213404492
  2.0714287905140889  1.2118060811622409 24.3855388300240321
  0.2559409365369243  2.2599784823664519 20.0266902351418565
  0.2559409365369243  2.2599784823664519 25.9981446587730787
