Ca Cl Ge I 
 1.0000000000000000
     4.2190322078074667   -0.0000000000000000    0.0000000000000000
    -2.1095161039037338    3.6537890713460124    0.0000000000000000
     0.0000000000000000    0.0000000000000000   39.5760587657585887
 Ca  Cl  Ge  I  
   1   2   1   2
Cartesian
  0.5172800535725778  0.8124290727524155 16.4021708164290665
  2.6267961574763103  2.0303587632010855 17.8043416328581401
  0.5172800535725776  3.2482884536497560 15.0000000000000000
  0.6250536872338092  0.6998739362818591 22.8312828717773471
  2.7345697911375426  1.9178036267305294 24.5760587657585887
  0.6250536872338089  3.1357333171791999 21.0865069777960947
