Sr Br Cl Ag
 1.0000000000000000
     4.3945610134826696    0.0000000000000000    0.0000000000000000
    -2.1972805054845788    3.8138721268616740    0.0000000000000000
    -0.0000000000000000    0.0000000000000000   40.5458997963259904
 Sr  Br  Cl  Ag 
   1   2   2   2
Cartesian
 -0.4426875059696609  1.7100664837342117 16.8028165994893754
  1.7545930011905926  2.9813571926881028 18.6056331989787509
  1.7545930011905926  2.9813571926881028 15.0000000000000000
  1.2994850670383313  0.7616065644685355 22.2590432546073842
  1.2949793176322939  3.2989481008234645 25.5458997963259833
  1.2949199607126591  0.7637666424692222 25.2365454469397257
  1.2995801958562245  3.2967692869514642 22.5670917149436505
