I  Cd In Te In
 1.0000000000000000
     4.3910470723804451    0.0008383076656587    0.0000000000000000
    -2.1947915564732741    3.8100133862485475    0.0000000000000000
     0.0000000000000034    0.0000000000000000   44.0661035235038767
 I   Cd  In  Te  In 
   2   2   1   2   1
Cartesian
  1.1004064131775873 -0.8660639248418820 15.0000000000000000
  1.1120152042160134  4.1824048992910550 20.9102076548876994
  1.1172280503683447  1.6448097252768750 19.2986420562647396
  1.0982882173674891  1.6693319821287507 16.6116177631989359
  0.8665826783994933  3.1186489925926559 27.6915353329564233
  3.0618686344603754  1.8485264231156460 23.5083715406013667
  0.8660379767212375  0.5780426946474653 29.0661035235038838
  0.8665286812921548  3.1188473671987333 24.8829427487003976
