Cr Se Si S 
 1.0000000000000000
     3.2574843066306505   -0.0000000000000001    0.0000000000000000
    -1.6285614125574996    2.8213610255042783    0.0000000000000000
     0.0000000000000012    0.0000000000000021   39.7796157092743812
 Cr  Se  Si  S  
   1   2   1   2
Cartesian
 -0.2125613067873839  1.1404037824287003 16.5737644427049204
  1.4162410934472165  2.0808574575967929 18.1475288854098409
  1.4162410934472165  2.0808574575967929 14.9999999999999964
  2.7348504422329198  0.8808731467331370 23.4539356635530609
  1.1064925911742569  1.8215861064203267 22.1277137557800465
 -0.5225790650617732  2.7624102394064707 24.7796157092743812
