Mo O  Ge O 
 1.0000000000000000
     2.8621356626987673    0.0000000000000000    0.0000000000000000
    -1.4310678313493836    2.4786821929745413    0.0000000000000000
     0.0000000000000000    0.0000000000000000   38.3627275799428844
 Mo  O   Ge  O  
   1   2   1   2
Cartesian
 -0.5648483381427063  1.1658002193514760 16.2250003583693214
  0.8662194932066773  1.9920276170096565 17.4500007167386428
  0.8662194932066773  1.9920276170096565 15.0000000000000000
  0.4718049595987556  0.7985492838711016 22.3832867959945574
  1.9028727909481391  1.6247766815292821 23.3627275799428844
  0.4718049595987556  2.4510040791874625 21.4038460120462304
