Cr Se Zn F 
 1.0000000000000000
     3.1775026355185298    0.0000000000000000    0.0000000000000000
    -1.5887513177592651    2.7517980029510536    0.0000000000000000
     0.0000000000000000    0.0000000000000000   39.0919674705266047
 Cr  Se  Zn  F  
   1   2   1   2
Cartesian
 -0.6591722404659597  1.3711869521037168 16.5737644427049240
  0.9295790772933052  2.2884529530874014 18.1475288854098444
  0.9295790772933052  2.2884529530874014 15.0000000000000000
  0.4372383524011818  0.8129745670097747 23.0962005661821195
  2.0259896701604458  1.7302405679934587 24.0919674705266047
  0.4372383524011818  2.6475065689771426 22.1004336618376165
