Ti Br F  Pt
 1.0000000000000000
     3.4320326204197276    0.0000585085648160    0.0000000000000000
    -1.7159655789191255    2.9723824759972057    0.0000000000000000
    -0.0000000000000013   -0.0000000000000000   40.6429592595403903
 Ti  Br  F   Pt 
   1   2   2   2
Cartesian
 -0.3366507973821181  1.2919503223946962 16.6938534583278368
  1.3793824232579917  2.2827834867703087 18.3877069173080017
  1.3793824232579919  2.2827834867703087 15.0000000000000000
 -0.5067604496048146  1.6093607445528373 21.8496536033117970
  2.9250430453023619  1.6100737988527296 25.6429592595403903
  1.2090844159732661  0.6189618793469334 24.5040702258873822
  1.2092205582824578  2.6003959104626042 22.9885789727638752
