S  Cd I  Zn
 1.0000000000000000
     4.2535575851601806    0.0000000000000035    0.0000000000000000
    -2.1253928228849297    3.6859541747066213    0.0000000000000000
     0.0000000000000013    0.0000000000000022   42.1171733960910117
 S   Cd  I   Zn 
   2   2   2   2
Cartesian
  0.5574810836759760  0.9474638947728821 15.0000000000000000
  0.5587196185538872  3.4035506776924618 18.2374084038473541
  0.5571141645389264  0.9475333928335367 17.8133498455626729
  0.5590867610940251  3.4034812018572134 15.4239508926595690
  0.5753966371871078  0.9243476613952131 21.8138233626545137
  0.5649311764977173  3.3708202263698746 27.1171733960910117
  2.6906745686709783  2.1395639972398617 25.6512171015500030
  2.7035669495588102  2.1561295772080147 23.2796725987693485
