Hf O  Zr O 
 1.0000000000000000
     3.2616222327936342    0.0000000000000000    0.0000000000000000
    -1.6308111163968171    2.8246477111474091    0.0000000000000000
     0.0000000000000000    0.0000000000000000   37.3678818072267660
 Hf  O   Zr  O  
   1   2   1   2
Cartesian
  0.5477077810582127  0.6840175624104945 15.9724295917334569
  2.1785188974550302  1.6255667994596308 16.9448591834669173
  0.5477077810582127  2.5671160365087671 14.9999999999999982
  0.5877086769386697  0.8475300812900239 21.4065498347951930
  2.2185197933354868  1.7890793183391602 22.3678818072267660
  0.5877086769386697  2.7306285553882965 20.4452178623636129
