Ga Te Ga S  Hf
 1.0000000000000000
     4.1482307113732251   -0.0000000000000000    0.0000000000000000
    -2.0741153573501032    3.5930417708156117    0.0000000000000000
    -0.0000000000000000    0.0000000000000000   42.2409436979023525
 Ga  Te  Ga  S   Hf 
   1   2   1   2   2
Cartesian
  0.7350947929122930  3.2029421327792198 18.7270307746498332
  2.8092604452095560  2.0052380200679352 15.0000000000000000
  0.7350839096068726  0.8075932039900970 19.9886537406659173
  0.7351342338795784  3.2029308438238369 16.2616350472053277
  1.3065086971475910  0.3011903446429566 23.9154570513199829
  1.3068328960205504  2.6960362950285575 27.2409436979023525
  1.3066357091426319  0.3010659057602594 26.5200381866182653
  1.3067058740849575  2.6961607391096978 24.6364533967640327
