Cl Pd Hg F 
 1.0000000000000000
     3.6637383674216863   -0.0000057074165551    0.0000000000000000
    -1.8318741272155421    3.1728644526638794    0.0000000000000000
    -0.0000000000000000   -0.0000000000000000  -38.4494517628786383
 Cl  Pd  Hg  F  
   2   2   1   2
Cartesian
 -0.4840010543847502  1.7702539284087169 -19.0602727285529063
  3.1797892538499468  1.7701598825624423 -14.9999999999999982
  1.3476510710224348  0.7124161710567266 -16.2782036948100597
  1.3476437360087394  2.8276824881690183 -17.7840570374770763
  0.8697152843742447  0.0672573038254577 -22.4207796105184549
  2.7015828202501782  1.1248749831023805 -21.3921074581582396
  0.8697119887044427  2.1824983697958582 -23.4494517628786419
