Sn Se Zr Se
 1.0000000000000000
     3.8508237059716652   -0.0000000000000000    0.0000000000000000
    -1.9254118529858326    3.3349111548667998    0.0000000000000000
    -0.0000000000000000    0.0000000000000000   38.1778372307417797
 Sn  Se  Zr  Se 
   1   1   1   2
Cartesian
  2.2123773009084782  1.5411734564641077 16.5586206887278209
  0.2869654479226457  2.6528105080863744 15.0000000000000000
  0.5707251535924963  0.4783770697357276 21.5972319256097514
  2.4961370065783286  1.5900141213579941 23.1778372307417797
  0.5707251535924963  2.7016511729802608 20.0166266204776022
