I  Zn Tl Se Tl
 1.0000000000000000
     4.2103734727563005    0.0000000000000035    0.0000000000000000
    -2.1038007679155295    3.6470898722277991    0.0000000000000000
     0.0000000000000014    0.0000000000000023   44.2746088493608028
 I   Zn  Tl  Se  Tl 
   2   2   1   2   1
Cartesian
  0.7980672574034153  0.8585802135902765 14.9999999999999964
  0.7877173854957561  3.2792574362289515 20.3033500334364945
  2.8918745334674383  2.0609834397176212 18.8373937388954857
  2.9046360880883446  2.0773743540008240 16.4658492361148312
  0.1955900835960326  3.3123234638071519 27.9904962529315853
  2.3001665709647914  2.0960805071735051 23.8116962592033659
  0.1945621443895985  0.8804425248532085 29.2746088493608028
  0.1953384097586236  3.3127396531154787 25.0958055122528023
