Tl Te Sr Br
 1.0000000000000000
     4.5615202502360557    0.0000000000000000    0.0000000000000000
    -2.2807601251180278    3.9503924165815731    0.0000000000000000
     0.0000000000000000    0.0000000000000000  -41.9389210556604226
 Tl  Te  Sr  Br 
   2   2   1   2
Cartesian
  2.5670281108529820  1.6847801743468611 -19.2838466837136160
  2.5670281108529820  1.6847801743468611 -16.3836225478163655
  0.2862679857349543  3.0015776465407185 -20.6674692707617140
  0.2862679857349543  3.0015776465407185 -14.9999999999999982
  0.2714893901559922  0.6829687974886584 -25.3731975368660372
  2.5522495152740201  1.9997662696825165 -23.8074740180716518
  0.2714893901559923  3.3165637418763749 -26.9389210556604226
