Cr Te Ti Se
 1.0000000000000000
     3.4827268837943750    0.0000000000000000    0.0000000000000000
    -1.7413634418971875    3.0161299558089434    0.0000000000000000
     0.0000000000000000    0.0000000000000000   40.6486312548452560
 Cr  Te  Ti  Se 
   1   2   1   2
Cartesian
  0.1487431918581903  1.4024879656131413 16.7062363127964808
  1.8901066337553778  2.4078646175494551 18.4124726255929616
  1.8901066337553778  2.4078646175494551 14.9999999999999964
  0.3334629321636345  1.3873887093293895 24.0286914276642491
  2.0748263740608222  2.3927653612657038 25.6486312548452560
  2.0748263740608222  2.3927653612657038 22.4087516004833063
