S  Hf In Se In
 1.0000000000000000
     4.1163449852582197    0.0000000000000000    0.0000000000000000
    -2.0581724914444126    3.5653919577656685    0.0000000000000000
    -0.0000000000000000    0.0000000000000000   42.2961961819217436
 S   Hf  In  Se  In 
   2   2   1   2   1
Cartesian
  1.2969179322690774  0.3659764237957061 15.0000000000000000
  1.2972396410498483  2.7423931303719464 18.3254866465823731
  1.2970439679755807  0.3658529425171956 17.6045811352982824
  1.2971135954792019  2.7425166168088966 15.7209963454440533
  0.8093459036605943  3.2520824804740571 26.0257804328028044
  2.8675267780376479  2.0632560029587492 21.9404681999437017
  0.8091916689041291  0.8749346068638285 27.2961961819217436
  0.8092000489136836  3.2522973283421881 23.2108761646318129
