W  Te Ni Se
 1.0000000000000000
     3.5459119509767474    0.0000000000000000    0.0000000000000000
    -1.7729559754883737    3.0708498291287039    0.0000000000000000
     0.0000000000000000    0.0000000000000000   36.8030373499218797
 W   Te  Ni  Se 
   1   2   1   2
Cartesian
  1.4146675517865481  0.0914167966905006 16.8119622132334641
  3.1876235272749218  1.1150334064000682 18.6239244264669281
  3.1876235272749218  1.1150334064000682 14.9999999999999982
 -0.9017451262308613  0.8178596067660546 20.5576964059050731
  0.8712108492575119  1.8414762164756224 21.8030373499218797
 -0.9017451262308616  2.8650928261851902 19.3123554624269147
