Pd Se Pt Se
 1.0000000000000000
     3.7415588808127382   -0.0000000000000000    0.0000000000000000
    -1.8707794404063691    3.2402850405391037    0.0000000000000000
    -0.0000000000000000    0.0000000000000000  -38.5139858449114030
 Pd  Se  Pt  Se 
   1   2   1   2
Cartesian
  0.7033115842558855  0.9713010849023179 -16.3130585243314101
  2.5740910246622537  2.0513960984153523 -14.9999999999999982
  0.7033115842558855  3.1314911119283870 -17.6261168079604857
  0.7427497727323960  0.7584549909776188 -22.2041771170140194
  2.6135292131387655  1.8385500044906535 -20.8943683952062713
  0.7427497727323957  2.9186450180036885 -23.5139858449114030
