Pb S  Pb Se
 1.0000000000000000
     4.0134479097566702    0.0000000000000000    0.0000000000000000
    -2.0067239548783351    3.4757478466148228    0.0000000000000000
    -0.0000000000000000    0.0000000000000000   36.4722605757047944
 Pb  S   Pb  Se 
   1   1   1   1
Cartesian
  2.0418890397184355  1.3758066013115844 16.4391638847389423
  0.0351650848401002  2.5343892168498585 15.0000000000000000
  2.2729084805414792  1.0533792807854008 21.4722605757047944
  0.2661845256631439  2.2119618963236745 19.9240185289630887
