In S  Hf Se
 1.0000000000000000
     3.8435672697227767    0.0000000000000000    0.0000000000000000
    -1.9217836348613884    3.3286268967343196    0.0000000000000000
     0.0000000000000000    0.0000000000000000   42.3092147306568478
 In  S   Hf  Se 
   2   2   1   2
Cartesian
  2.1386234657172021  1.4487858073380950 16.1777227309346578
  2.1386234657172021  1.4487858073380950 18.9966802391880591
  0.2168398308558138  2.5583281062495349 15.0000000000000000
  0.2168398308558138  2.5583281062495349 20.1744029701158176
  0.0101662940192129  0.6536095536367151 25.7333257098773451
  1.9319499288806012  1.7631518525481547 27.3092147306568478
  0.0101662940192128  2.8726941514595943 24.1574366891001695
