Pb S  Pb S 
 1.0000000000000000
     3.8985565304070118   -0.0000000000000000    0.0000000000000000
    -1.9492782652035059    3.3762489934221924    0.0000000000000000
    -0.0000000000000000    0.0000000000000000   38.0596176378610025
 Pb  S   Pb  S  
   1   1   1   2
Cartesian
  2.1544539961490248  1.3221095592876635 16.4391638847389387
  0.2051757309455189  2.4475258904283943 14.9999999999999982
  0.8165678608453580  0.3780488660292260 21.5176272798233690
  2.7658461260488645  1.5034651971699569 23.0596176378610025
  0.8165678608453580  2.6288815283106874 19.9756369217857355
