Pb O  Hf S 
 1.0000000000000000
     3.6225477575296972   -0.0000000000000000    0.0000000000000000
    -1.8112738787648486    3.1372183844430683    0.0000000000000000
    -0.0000000000000000    0.0000000000000000   37.5171540210764789
 Pb  O   Hf  S  
   1   1   1   2
Cartesian
  1.9822094115242517  1.1707035020238932 15.9428404019710150
  0.1709355327594030  2.2164429635049157 15.0000000000000036
  0.8488553288718468  0.1704006840179478 21.0690497190852852
  2.6601292076366949  1.2161401454989709 22.5171540210764789
  0.8488553288718468  2.2618796069799938 19.6209454170944255
