Ge O  Al O 
 1.0000000000000000
     2.9935090013359895   -0.0000000000000000    0.0000000000000000
    -1.4967545006679948    2.5924548416143565    0.0000000000000000
    -0.0000000000000000    0.0000000000000000   38.7751694214905669
 Ge  O   Al  O  
   1   1   2   2
Cartesian
  1.3948381525296216  1.5803905096812396 15.9944417982831197
 -0.1019163481383734  2.4445421235526918 15.0000000000000000
  1.7792930960056634  1.1136360235946143 20.4845837272345683
  1.7792930960056634  1.1136360235946143 23.1070611656814471
  0.2825385953376687  1.9777876374660663 19.8164754714254165
  0.2825385953376687  1.9777876374660663 23.7751694214905669
