Pb Te S  Cd
 1.0000000000000000
     4.3196970003660340    0.0000000000000000    0.0000000000000000
    -2.1598484989504767    3.7424331030655926    0.0000000000000000
     0.0000000000000000    0.0000000000000000   38.8349848699235380
 Pb  Te  S   Cd 
   1   1   2   2
Cartesian
  2.4321852143471361  1.3500059987740596 16.6845068820464775
  0.2723367145749654  2.5974836997959230 15.0000000000000000
  1.6054129668638955  1.4431499044787515 20.5975764660761875
  1.6057328781884976  3.9368706738455357 23.8349848699235380
  1.6050403158894637  1.4432204674403248 23.4109263116388568
  1.6061057560312699  3.9368001334499221 21.0215273587357530
