Zn Br Zr Se
 1.0000000000000000
     3.7964724828461716    0.0000000000000000    0.0000000000000000
    -1.8982362414230860    3.2878416149133658    0.0000000000000000
    -0.0000000000000000    0.0000000000000000   39.4746437795464686
 Zn  Br  Zr  Se 
   1   2   1   2
Cartesian
  0.5127495086925739  0.6740744636033883 16.4825986053316029
  2.4109857501156586  1.7700216685745100 17.9651972106632236
  0.5127495086925741  2.8659688735456319 15.0000000000000000
  0.5346933474876914  0.7027535530711432 22.8940384744144367
  2.4329295889107767  1.7987007580422649 24.4746437795464651
  0.5346933474876913  2.8946479630133863 21.3134331692822876
