I  Pt Se Ti
 1.0000000000000000
     4.0022021565299069    0.0000237985287992    0.0000000000000000
    -2.0010804584066655    3.4669704601151139    0.0000000000000000
    -0.0000000000000002   -0.0000000000000000   41.4703268646173413
 I   Pt  Se  Ti 
   2   2   2   2
Cartesian
 -0.8070149392457305  1.3814925037444188 15.0000000000000000
  3.1950317357808466  1.3816890753725883 19.3964869774338879
  1.1938497786916731  0.2258616259133236 17.9075952834741159
  1.1938972421714094  2.5371476473616430 16.4880841189940028
  1.3692213089236449  0.8174440740518523 22.9109954067500610
  1.3693421584880894  3.1281807752584267 26.4703268646173413
  1.3690286920317609  0.8175113178739929 25.5443135428187169
  1.3695348563560188  3.1281135579613544 23.8370800301648202
