In S  Pb S 
 1.0000000000000000
     3.8812671843268021    0.0000000000000000    0.0000000000000000
    -1.9406335921634010    3.3612759805019099    0.0000000000000000
     0.0000000000000000    0.0000000000000000   42.2405038373379327
 In  S   Pb  S  
   2   2   1   2
Cartesian
  2.1579851121842628  1.4605467630555082 16.1777227309346543
  2.1579851121842628  1.4605467630555082 18.9966802391880591
  0.2173515200208622  2.5809720898894781 14.9999999999999964
  0.2173515200208622  2.5809720898894781 20.1744029701158141
  0.0122547796827541  0.6595638281640812 25.6985134793003098
  1.9528883718461554  1.7799891549980511 27.2405038373379398
  0.0122547796827541  2.9004144818320214 24.1565231212626728
