Ti Br Ge S 
 1.0000000000000000
     3.4578011936047881    0.0000000000000000    0.0000000000000000
    -1.7289005968023941    2.9945436748979004    0.0000000000000000
    -0.0000000000000000    0.0000000000000000   39.9750194643897672
 Ti  Br  Ge  S  
   1   2   1   2
Cartesian
 -0.2592251479833964  0.9401782167268267 16.6938534583278368
  1.4696754488189976  1.9383594416927934 18.3877069173080052
  1.4696754488189976  1.9383594416927934 15.0000000000000000
  0.5609383130533092  0.8300295939973708 23.5780103385532698
  2.2898389098557037  1.8282108189633375 24.9750194643897672
  0.5609383130533092  2.8263920439293044 22.1810012127165841
