Zr I  Sn S 
 1.0000000000000000
     3.7905514815738464   -0.0000000000000000    0.0000000000000000
    -1.8952757407869232    3.2827138773956923    0.0000000000000000
    -0.0000000000000000    0.0000000000000000   39.2793637365223560
 Zr  I   Sn  S  
   1   2   1   1
Cartesian
 -0.1011133294319515  1.3221214589960835 22.3402184999332221
  1.7941624113549719  2.4163594181279811 24.2793637365223560
  1.7941624113549719  2.4163594181279811 20.4010732639701295
  2.1526555521005597  1.8344980361646308 16.4598471617338120
  0.2573798113136363  2.9287359952965279 15.0000000000000000
