Mo Te Ga S 
 1.0000000000000000
     3.5963599198383660    0.0000000000000000    0.0000000000000000
    -1.7981799599191830    3.1145390517321920    0.0000000000000000
     0.0000000000000000    0.0000000000000000   42.1476551056109656
 Mo  Te  Ga  S  
   1   2   2   2
Cartesian
 -0.6356756331907152  1.5182759903516490 16.8051000000000030
  1.1625043267284676  2.5564556742623799 18.6101999999999990
  1.1625043267284676  2.5564556742623799 15.0000000000000018
  1.9608898072221383  1.3704023374832275 23.5749089590036149
  1.9608898072221383  1.3704023374832275 26.0536275202469696
  0.1627098473029556  2.4085820213939582 22.4808813736394626
  0.1627098473029556  2.4085820213939582 27.1476551056109656
