Al S  Al Cl Pt
 1.0000000000000000
     3.6147575194576609    0.0000000000000002    0.0000000000000000
    -1.8073787586916885    3.1310356897326947    0.0000000000000000
     0.0000000000000002    0.0000000000000000  -42.8032254716605323
 Al  S   Al  Cl  Pt 
   1   2   1   2   2
Cartesian
  0.6304023735640719  2.9509554983406310 -16.0652178851700569
  2.4378169204456648  1.9073456084925129 -19.7235705521294129
  0.6303093874664379  0.8637331137529638 -15.0000000000000036
  0.6303451870290423  2.9510031133911938 -18.6583518798425807
 -0.4126756432480036  1.4158844488418625 -27.8032254716605252
  3.2009721168683272  1.4170406238097515 -23.6198954296810086
  1.3944106268165379  0.3732354763919556 -24.9686782939371454
  1.3946265287044706  2.4601624803620079 -26.4524413435955168
