Cl Pd S 
 1.0000000000000000
     3.6108672554024963   -0.0000057074165551    0.0000000000000000
    -1.8054385712059489    3.1270767265289297    0.0000000000000000
    -0.0000000000000001    0.0000000000000000   39.8114848851814713
 Cl  Pd  S  
   2   3   2
Cartesian
 -0.6251769553095570  1.8210083071708607 15.0000000000000000
  2.9857414913542648  1.8209155361397635 19.0602727285529099
  1.1800427702234477  0.7784362187959138 17.7820690337428502
  1.1800354935006288  2.8631770207511580 16.2762156910758335
  0.7328409436207950  0.2713247503431755 23.5664130517769408
  2.5382729234871428  1.3136798542417820 24.8114848851814713
  0.7328376479509945  2.3560406655569430 22.3213412183724103
