Zr Te Ga Se
 1.0000000000000000
     3.8734789717655822   -0.0000000000000000    0.0000000000000000
    -1.9367394858827911    3.3545311905738204    0.0000000000000000
     0.0000000000000000    0.0000000000000000   42.3323306593740938
 Zr  Te  Ga  Se 
   1   2   2   2
Cartesian
 -0.4922671458296305  1.4528538168849630 16.8615645620742072
  1.4444723400531609  2.5710308804095696 18.7231291241485991
  1.4444723400531609  2.5710308804095696 15.0000000000000000
  2.0734242443045590  1.4427165624710998 23.6797025952655176
  2.0734242443045590  1.4427165624710998 26.1552578050577011
  0.1366847584217680  2.5608936259957069 22.5026297409478886
  0.1366847584217680  2.5608936259957069 27.3323306593740938
