I  Zn Te Zn
 1.0000000000000000
     4.2604826018381452    0.0000000000000035    0.0000000000000000
    -2.1288553312199556    3.6910111849523508    0.0000000000000000
     0.0000000000000013    0.0000000000000022   42.1878902213176517
 I   Zn  Te  Zn 
   2   2   2   2
Cartesian
  0.4227913531900939  0.9755298232098135 15.0000000000000018
  0.4123073565218797  3.4253588696382784 20.3033500334365016
  2.5415123250847760  2.1924133966732353 18.8373937388954928
  2.5544256853095062  2.2090017040828198 16.4658492361148348
  0.6362794467812540  0.9390338111393187 23.4281428551702966
  0.6373087856432860  3.3994331604864989 27.1878902213176517
  0.6361473657448249  0.9391189532091104 26.2391013501765684
  0.6374406393856746  3.3993476600326007 24.3772830621752270
