Zr Te Zr Te
 1.0000000000000000
     3.7384829379970590   -0.0000000000000000    0.0000000000000000
    -1.8692414689985295    3.2376255403158916    0.0000000000000000
     0.0000000000000000    0.0000000000000000   46.2408739756644422
 Zr  Te  Zr  Te 
   1   2   3   2
Cartesian
  0.0625265244929723  2.8587875195768708 19.5496005537787596
  1.9317380443439820  1.7796324759977176 15.0000000000000000
  0.0624284887808752  0.7005061462227840 21.3877247954669691
  0.0623985062100549  2.8593050752080678 16.8381223339300696
  2.2088089284079939  1.4656044676632067 26.7437893585033706
  2.2088089284079939  1.4656044676632067 29.4226803734461981
  0.3395674594094644  2.5448129811018374 24.9255959217535477
  0.3395674594094644  2.5448129811018374 31.2408739756644422
