Pb S  Bi Se Bi
 1.0000000000000000
     4.8222554508557440    0.0000000000000000    0.0000000000000000
    -2.4111277254278720    4.1761957239790561    0.0000000000000000
     0.0000000000000000    0.0000000000000000   39.9344296168809620
 Pb  S   Bi  Se  Bi 
   1   2   1   2   1
Cartesian
  0.3769086016316183  1.1947529051562111 16.0751107127686339
  2.7880363270594901  2.5868181464825630 17.1502214255372643
  2.7880363270594901  2.5868181464825630 15.0000000000000036
  0.5517912453222349  3.7802138506427538 24.5742159285739916
  2.9677117904938672  2.3880003002765600 21.1408339390821993
  0.5511367968396053  0.9958743180868891 24.9344296168809620
  0.5559193927908503  3.7809510830907200 21.5010594807815920
