Ti Te Ru Cl
 1.0000000000000000
     3.6649744576166752   -0.0000000000000000    0.0000000000000000
    -1.8324872288083376    3.1739609845171346    0.0000000000000000
     0.0000000000000000    0.0000000000000000   34.2432825919172075
 Ti  Te  Ru  Cl 
   1   2   1   2
Cartesian
 -1.4073076844647501  2.0455998845268630 16.7885301883608946
  0.4251795443435875  3.1035868793659080 18.5770603767261022
  0.4251795443435875  3.1035868793659080 15.0000000000000000
  0.2752735692403622  1.2327444782167083 18.0159064423016133
  2.1077607980487016  2.2907314730557529 19.2432825919172075
  0.2752735692403637  3.3487184678947974 16.7885303032045741
