Zr Se Hf S 
 1.0000000000000000
     3.6239585552545943    0.0000000000000000    0.0000000000000000
    -1.8119792776272972    3.1384401711124310    0.0000000000000000
     0.0000000000000000    0.0000000000000000  -42.3782481650079390
 Zr  Se  Hf  S  
   2   2   1   2
Cartesian
  2.0741919981815542  1.3802862708589694 -19.3588483374326330
  2.0741919981815542  1.3802862708589694 -16.6126058287490466
  0.2622127205542569  2.4264329945631129 -20.9714544236312221
  0.2622127205542569  2.4264329945631129 -15.0000000000000018
  0.1931621820497445  0.5776223675881312 -25.9301438630170864
  2.0051414596770414  1.6237690912922749 -24.4820395610258927
  0.1931621820497445  2.6699158149964184 -27.3782481650079426
