Ge Cl Se Zn
 1.0000000000000000
     4.1538769064744034   -0.0000000000000002    0.0000000000000000
    -2.0769384520732594    3.5975262003993711    0.0000000000000000
     0.0000000000000010    0.0000000000000016   41.7607697377517937
 Ge  Cl  Se  Zn 
   2   2   2   2
Cartesian
  1.2351903156673283  0.8519992770513453 17.1900136315555017
  1.2351903200714485  3.2503500773175942 17.8618516334689801
  1.2351903156673283  0.8519992770513448 15.0000000000000000
  1.2351903200714485  3.2503500773175942 20.0518652577973988
  1.2289999737996964  0.9822663684163148 23.3474661470608176
  1.2291072953260747  3.3804812187073257 26.7607697377518008
  1.2288974761639899  0.9823223126236010 26.0031633286707375
  1.2292097629944148  3.3804252724784094 24.1054477491490573
