Br Pt Cl Pt
 1.0000000000000000
     3.6937547482258992    0.0000194514724016    0.0000000000000000
    -1.8468605204514188    3.1994785836903943    0.0000000000000000
    -0.0000000000000004   -0.0000000000000000   40.3254034760921058
 Br  Pt  Cl  Pt 
   2   2   2   2
Cartesian
 -0.6677609301525063  1.3801413573703769 14.9999999999999982
  3.0258688773875608  1.3803003426011053 19.3348512724562127
  1.1789130933393894  0.3136671939552210 17.8923023562523369
  1.1789555852895444  2.4466222036847936 16.4415417443947689
 -0.7094645876073227  1.8828363919589095 21.1420734341125893
  2.9831561547220304  1.8840372894326318 25.3254034760921058
  1.1371082927542882  0.8174021133177807 23.9766206118359690
  1.1373401457337775  2.9499547946436540 22.4928575621775977
