Ge Te In S 
 1.0000000000000000
     3.9289942432137916    0.0000000000000000    0.0000000000000000
    -1.9644971216068958    3.4026088259459542    0.0000000000000000
     0.0000000000000000    0.0000000000000000   40.3383892417403729
 Ge  Te  In  S  
   1   1   2   2
Cartesian
  1.8776521861612714  1.7981677807138416 16.5598212339094282
 -0.0868449354456240  2.9323707226958255 15.0000000000000000
  2.2769799892318998  1.4151592036361018 21.3417090025592131
  2.2769799892318998  1.4151592036361018 24.1606665108126180
  0.3124828676250043  2.5493621456180859 20.1639862716245588
  0.3124828676250043  2.5493621456180859 25.3383892417403729
