Mg Cl Zn Br
 1.0000000000000000
     3.7355163999194412    0.0000000000000000    0.0000000000000000
    -1.8677581999597210    3.2350520985836262    0.0000000000000000
     0.0000000000000000    0.0000000000000000   39.1051573064261646
 Mg  Cl  Zn  Br 
   1   2   1   2
Cartesian
  0.5610047711615254  0.7624896204218168 16.3729058647441263
  2.4287629711212460  1.8408403199496925 17.7458117294882669
  0.5610047711615257  2.9191910194775681 14.9999999999999982
  0.5803548899564448  0.7128853128707280 22.6225587010945475
  2.4481130899161645  1.7912360123986029 24.1051573064261646
  0.5803548899564449  2.8695867119264782 21.1399600957629445
