Pd Se Zr S 
 1.0000000000000000
     3.7085646822181673    0.0000000000000000    0.0000000000000000
    -1.8542823411090836    3.2117112263786964    0.0000000000000000
    -0.0000000000000000    0.0000000000000000   38.9826582231150311
 Pd  Se  Zr  S  
   1   2   1   2
Cartesian
  0.6923573984599561  0.9370114453059706 16.3130582836290756
  2.5466397395690392  2.0075818540988695 17.6261168079604857
  0.6923573984599561  3.0781522628917686 15.0000000000000000
  0.8096032354656051  0.8574616400654459 22.5367757803709665
  2.6638855765746885  1.9280320488583444 23.9826582231150311
  0.8096032354656049  2.9986024576512427 21.0908933376268379
