Pb O  Si Se
 1.0000000000000000
     3.4552264773878232   -0.0000000000000001    0.0000000000000000
    -1.7274213719229383    2.9929007279413966    0.0000000000000000
     0.0000000000000012    0.0000000000000021   38.8740887472072529
 Pb  O   Si  Se 
   1   2   1   2
Cartesian
  0.8718334821780691 -0.3125072579241981 16.0586191561446796
  2.5995106764623044  0.6851263180562671 17.1172383122893592
  0.8719613933587178  1.6827598940367323 15.0000000000000000
  0.5531726834897120  0.6149775193577430 22.4344637182516102
  2.2813663958569084  1.6118093552250183 20.9948356603916935
  0.5533532633052145  2.6095072514178299 23.8740887472072529
