Ge O  Ge O 
 1.0000000000000000
     2.9573189101945832   -0.0000000000000000    0.0000000000000000
    -1.4786594550972916    2.5611133033206244    0.0000000000000000
    -0.0000000000000000    0.0000000000000000   36.7028638051124929
 Ge  O   Ge  O  
   1   1   1   2
Cartesian
  1.6858326098746705  1.1709432328144009 15.9944417982831233
  0.2071731547773786  2.0246476672546092 15.0000000000000000
  0.5204212672473649  0.2241876879060419 20.7234230211641659
  1.9990807223446563  1.0778921223462499 21.7028638051124929
  0.5204212672473649  1.9315965567864577 19.7439822372158389
