I  Ag I  In
 1.0000000000000000
     4.5268564415653207   -0.0000000000000000    0.0000000000000000
    -2.2634282181968484    3.9242669615047046    0.0000000000000000
     0.0000000000000000    0.0000000000000000   43.6166393633304565
 I   Ag  I   In 
   2   2   2   2
Cartesian
  1.3045997380496082  0.7854319351609025 14.9999999999999964
  1.3043412859711809  3.4002362906362187 19.1467191956345957
  1.3028809297143609  0.7864035075868595 17.9021344705961027
  1.3060752862672074  3.3992580023185219 16.2436090111161704
  1.4904018353615320  0.9002045506528014 22.2641747904508307
  1.4904631986176866  3.5158124246950928 28.6166393633304637
  1.4896596171251986  0.9006516867701434 26.7579649638641328
  1.4912055532707833  3.5153657526710580 24.1236577916510626
