Br Ag I  Ag
 1.0000000000000000
     4.5045117413200284   -0.0000000000000000    0.0000000000000000
    -2.2522558680869653    3.9058792978340167    0.0000000000000000
     0.0000000000000000    0.0000000000000000   41.0978580524855062
 Br  Ag  I   Ag 
   2   2   2   2
Cartesian
  1.4149463630735988  1.0275103622377326 14.9999999999999964
  1.4178393333493573  3.6287273947530174 18.8414998721338023
  1.4137920812895250  1.0283061768470834 17.8250159142190086
  1.4189999419624226  3.6279220442384119 16.0173027462489550
  1.3762005063245357  1.1136902704645646 21.9511388568509105
  1.3759433299733812  3.7162426197627338 26.0978580524855062
  1.3744901820791922  1.1146572904614500 24.8532733274470132
  1.3776687711915265  3.7152689153422940 23.1947478679670844
