Se Cd Te Zn
 1.0000000000000000
     4.3909969707560510   -0.0000000000000000    0.0000000000000000
    -2.1954984828698185    3.8044635371734286    0.0000000000000000
    -0.0000000000000000    0.0000000000000000   40.6474288040503140
 Se  Cd  Te  Zn 
   2   2   2   2
Cartesian
  1.3526596385675396  1.0299978205588560 15.0000000000000000
  1.3530117912133941  3.5653753747954071 18.5885916162562417
  1.3522660289714206  1.0302006412864169 17.8903171033845112
  1.3534073253250605  3.5651719720436357 15.6980628372997124
  1.4838702727499342  0.9340878117379128 21.8876814379029625
  1.4839789673609411  3.4701136167091353 25.6474288040503140
  1.4837341126318890  0.9341755708596740 24.6986399329092308
  1.4841148933607820  3.4700254881874462 22.8368216449078894
