Ti I  Sn S 
 1.0000000000000000
     3.7324399007744447    0.0000000000000000    0.0000000000000000
    -1.8662199503872223    3.2323877721693384    0.0000000000000000
     0.0000000000000000    0.0000000000000000   40.2744652776293890
 Ti  I   Sn  S  
   1   2   1   2
Cartesian
 -0.2263585638792136  1.0201910439191404 16.8143657812576137
  1.6398613865080083  2.0976536346422532 18.6287315661405373
  1.6398613865080083  2.0976536346422532 14.9999999999999964
  0.4583740541965862  0.9367611745213857 23.7968938748449688
  2.3245940045838083  2.0142237652444983 25.2744652776293890
  0.4583740541965862  3.0916863559676111 22.3193224720605414
