Tl Se Zn I 
 1.0000000000000000
     4.1612702074752326    0.0000000000000000    0.0000000000000000
    -2.0806351037376167    3.6037657116848925    0.0000000000000000
     0.0000000000000000    0.0000000000000000   42.7194462236747654
 Tl  Se  Zn  I  
   2   2   1   2
Cartesian
  2.2065488786875700  1.6242406357161807 16.2878300414387418
  2.2065488786875700  1.6242406357161807 19.1809988256016233
  0.1259137749499532  2.8254958729444777 15.0000000000000000
  0.1259137749499532  2.8254958729444777 20.4688289080443653
  0.0616356726757794  0.5782209060661114 26.0920404551623903
  2.1422707764133948  1.7794761432944093 27.7194462236747725
  0.0616356726757787  2.9807313805227071 24.4646346866500011
