Br Hg S  Hf
 1.0000000000000000
     4.1636305314567501    0.0010674728082233    0.0000000000000000
    -2.0808831865788484    3.6128401924018974    0.0000000000000000
     0.0000000000000034    0.0000000000000000   42.1309165238725072
 Br  Hg  S   Hf 
   2   2   2   2
Cartesian
  1.2266348729918846 -0.1309042406410951 15.0000000000000000
  1.2372130115469917  4.6646282721417132 20.7696522731609790
  1.2416957022730111  2.2531744568263261 19.2178916173209373
  1.2227057847475999  2.2802319476818687 16.5512692941072075
  1.2123851870328188  0.8811159117564291 23.8054298772901305
  1.2133318430116051  3.2895138019993109 27.1309165238725072
  1.2125126382639659  0.8809908013883261 26.4100110125884164
  1.2132043818043514  3.2896389175927165 24.5264262227341874
