S  Zn Zr Se
 1.0000000000000000
     3.8587275513094230    0.0000000000000000    0.0000000000000000
    -1.9293637745343806    3.3420118569393926    0.0000000000000000
    -0.0000000000000000    0.0000000000000000   40.1961673587884718
 S   Zn  Zr  Se 
   2   2   1   2
Cartesian
  1.1307205023530338  0.6589923539628669 15.0000000000000000
  1.1307901066996657  2.8868059404978483 18.1207426419030746
  1.1305955337117914  0.6590400388130956 17.5814600890093473
  1.1309150901389384  2.8867583827389556 15.5394284044792972
  0.7633335193477809 -0.0751105458258396 23.6155620536564435
  2.6926972953759356  1.0388934064872910 25.1961673587884718
  0.7633335200946683  2.1528973588004217 22.0349567485242943
