Sn Se I  Pt
 1.0000000000000000
     3.9347574575421116    0.0000237985287992    0.0000000000000000
    -1.9673581100671087    3.4076327193004952    0.0000000000000000
     0.0000000000000002    0.0000000000000000  -38.4686976893547126
 Sn  Se  I   Pt 
   1   1   2   2
Cartesian
  2.1834096286345996  1.9220645181395772 -21.9100770006268881
  0.2160377727648600  3.0579341583968094 -23.4686976893547090
 -0.9101263308417228  1.5929187835875149 -19.3964869774338879
  3.0244782653726161  1.5931123981714346 -14.9999999999999964
  1.0570199052803757  0.4570668444392454 -16.4888916939597650
  1.0570667997931427  2.7287949804814793 -17.9084028584398816
