Cl Cd Mg Br
 1.0000000000000000
     3.9078010813274502    0.0012519794577290    0.0000000000000000
    -1.9528073585607471    3.3912459088771731    0.0000000000000000
     0.0000000000000033    0.0000000000000000   42.1225525949720563
 Cl  Cd  Mg  Br 
   2   2   1   2
Cartesian
  1.1424734544922714 -0.2953846781661872 15.0000000000000000
  1.1547767077557742  4.2039709823264273 20.5111542448488713
  1.1550660296573121  1.9432286644655143 19.0920396605243425
  1.1422416884205893  1.9653559496853654 16.4189511839095843
  0.6571438403228520  0.2656674542402930 25.6155269465563080
  2.6114087750209016  1.3969174101711712 27.1225525949720634
  0.6578726283915037  2.5269153866443199 24.1085012981405455
