Ca Cl I  Pt
 1.0000000000000000
     3.9542852073705923    0.0000237985287992    0.0000000000000000
    -1.9771219849813491    3.4245442467307061    0.0000000000000000
    -0.0000000000000002   -0.0000000000000000   40.9201674717665469
 Ca  Cl  I   Pt 
   1   2   2   2
Cartesian
 -0.3525881503368270  1.5274248769958416 16.6160803132927697
  1.6245613262497849  2.6689554915919431 18.2321606265855323
  1.6245613262497849  2.6689554915919431 15.0000000000000000
 -0.6404691849707255  2.0390168211258439 21.5236804943326590
  3.3136624024337631  2.0392112784808947 25.9201674717665469
  1.3364398063401595  0.8975277940216968 24.4312757778067819
  1.3364868653672211  3.1805301082672464 23.0117646133266618
