Cl Pt Hf S 
 1.0000000000000000
     3.6417646992689203    0.0000000000000002    0.0000000000000000
    -1.8208823485973182    3.1544284943626306    0.0000000000000000
    -0.0000000000000002    0.0000000000000000   39.4997531900684891
 Cl  Pt  Hf  S  
   2   2   1   2
Cartesian
 -0.5233225024461013  2.0998650727894530 20.3164231480889725
  3.1173241460622370  2.1010298858495973 24.4997531900684891
  1.2972651722290436  1.0494261911442901 23.1509703258123523
  1.2974826871940381  3.1519451846406503 21.6672072761539809
  0.7143350263189843  0.1606515080907214 16.4481043019908526
  2.5352173762991583  1.2121276728782648 17.8962086039820463
  0.7143350270104123  2.2636038376658085 14.9999999999999964
