Ru Cl Zn Cl
 1.0000000000000000
     3.5960220326726517   -0.0000000000000000    0.0000000000000000
    -1.7980110163363263    3.1142464328630708    0.0000000000000000
     0.0000000000000000    0.0000000000000000   38.5996526181491930
 Ru  Cl  Zn  Cl 
   1   2   1   2
Cartesian
  0.5203415341043507  0.6526226574183810 16.2273761390970392
  2.3183525504406779  1.6907048017060711 17.4547522887126334
  0.5203415341043519  2.7287869459937615 15.0000000000000036
  0.6604723371202540  0.8902037532911751 22.2321856295670770
  2.4584833534565793  1.9282858975788648 23.5996526181491930
  0.6604723371202539  2.9663680418665548 20.8647186409849397
