Sr Cl Ge Br Ge Br
 1.0000000000000000
     4.2357920532020250   -0.0506467540195987    0.0000000000000001
    -2.0741187090665596    3.6939198961303856    0.0000000000000001
     0.0000000000000021   -0.0000000000000000   36.6497437557254671
 Sr  Cl  Ge  Br  Ge  Br 
   1   2   1   1   1   1
Cartesian
  3.6622538082136797  1.7174115877566127 16.6559757380194817
  5.7947422739928429  2.9149537171203419 18.3119514760389670
  5.7947422739928429  2.9149537171203419 15.0000000000000000
  0.2213105581065945  1.1685078196021483 18.6203950655596024
 -1.9162911440064490 -0.0314937280965395 21.6497437557254671
 -1.9117606304691317 -0.0291936879994670 19.2996190666544010
 -4.0145226827132090  1.2164702102538132 16.2702528461827391
