Ge S  Ni Se
 1.0000000000000000
     3.5150442299453561   -0.0000000000000000    0.0000000000000000
    -1.7575221149726781    3.0441175985585875    0.0000000000000000
     0.0000000000000000    0.0000000000000000   37.5802917112845520
 Ge  S   Ni  Se 
   1   1   1   2
Cartesian
  1.9180370093508010  1.4763551206174634 16.3610326690029453
  0.1605148943781233  2.4910609868036593 15.0000000000000000
  0.6294997096695936  0.1113309113281230 21.3349507672677490
  2.3870218246422712  1.1260367775143187 22.5802917112845520
  0.6294997096695933  2.1407426437005141 20.0896098237895870
