Ge S  Pd S 
 1.0000000000000000
     3.4984766152622297    0.0000000000000000    0.0000000000000000
    -1.7492383076311149    3.0297696233628888    0.0000000000000000
    -0.0000000000000000    0.0000000000000000   38.8592256602603072
 Ge  S   Pd  S  
   1   2   1   2
Cartesian
  0.5633107412048499  1.0072610941679943 16.3970091258366857
  2.3125490488359652  2.0171843019556235 17.7940182516731795
  0.5633107412048499  3.0271075097432529 15.0000000000000000
  0.6446482033027132  0.6559091019179871 22.6141538268557767
  2.3938865109338279  1.6658323097056167 23.8592256602603072
  0.6446482033027132  2.6757555174932466 21.3690819934512461
