Sr I  In
 1.0000000000000000
     4.5571408985072939   -0.0000000000000000    0.0000000000000000
    -2.2785704479744897    3.9480638648913651    0.0000000000000000
     0.0000000000000000    0.0000000000000000   43.6698421535196033
 Sr  I   In 
   1   4   2
Cartesian
 -0.1748032307145775  1.6038907659903101 17.0028850106790017
  2.1037672189654550  2.9199120542874319 19.0057700213581562
  2.1037672189654550  2.9199120542874319 15.0000000000000000
  1.4453374231177696  0.7746187397095429 22.3173775806399597
  1.4453991960087818  3.4060877588998464 28.6698421535195962
  1.4445902394761505  0.7750685872772244 26.8111677540532618
  1.4461465169797858  3.4056383782397508 24.1768605818401916
