Ga Te Ca Cl
 1.0000000000000000
     4.1339217835083106   -0.0000000000000000    0.0000000000000000
    -2.0669608917541558    3.5800812817760708    0.0000000000000000
     0.0000000000000000    0.0000000000000000   41.8117833003937065
 Ga  Te  Ca  Cl 
   2   2   1   2
Cartesian
  2.2861669403952565  1.5457868784685234 16.2730454743835011
  2.2861669403952565  1.5457868784685234 18.7468688976248288
  0.2192060486411015  2.7391473057272133 15.0000000000000000
  0.2192060486411015  2.7391473057272133 20.0199143598030744
  0.1375969219496108  0.6572133485894185 25.4096124839646365
  2.2045578137037651  1.8505737758481082 26.8117833003937065
  0.1375969219496105  3.0439342031067977 24.0074416675355664
