Zr I  Pt
 1.0000000000000000
     3.8958834347897362    0.0000237985287992    0.0000000000000000
    -1.9479210986909212    3.3739668280496442    0.0000000000000000
    -0.0000000000000002   -0.0000000000000000   41.1930250084305811
 Zr  I   Pt 
   1   4   2
Cartesian
 -0.1883779443940461  1.5130754932399690 16.9391452359630961
  1.7595706459021379  2.6377469682757164 18.8782904725522265
  1.7595706459021379  2.6377469682757164 15.0000000000000000
 -0.8733200167703249  1.8956386270596179 21.7965380309966932
  3.0224120669180614  1.8958305639333859 26.1930250084305811
  1.0743914370205683  0.7710084767697003 24.7041333144708091
  1.0744380040336239  3.0202930305334057 23.2846221499906960
