Sr Br Ge F 
 1.0000000000000000
     4.3195838714442960   -0.0000000000000000    0.0000000000000000
    -2.1597919357221480    3.7408693664489974    0.0000000000000000
     0.0000000000000013    0.0000000000000022   41.1719024537098264
 Sr  Br  Ge  F  
   1   2   2   2
Cartesian
 -0.2302409685784030  1.6062592870000194 16.8028165994893754
  1.9295509671437452  2.8532157424830187 18.6056331989787509
  1.9295509671437452  2.8532157424830182 15.0000000000000000
  1.3450440824154770  0.8476933121962530 23.7979158316445449
  1.3450440861883710  3.3416062231622501 24.3909957169220704
  1.3450440824154770  0.8476933121962525 22.0170091260658367
  1.3450440861883710  3.3416062231622510 26.1719024537098264
