Ti Cl Zr O 
 1.0000000000000000
     3.2739220993870122    0.0000000000000000    0.0000000000000000
    -1.6369610496935061    2.8352997080804339    0.0000000000000000
     0.0000000000000000    0.0000000000000000   39.0309958191081137
 Ti  Cl  Zr  O  
   1   2   1   2
Cartesian
 -0.5158580612305208  1.2442242893924891 16.5858594364141609
  1.1211029884629848  2.1893241920859667 18.1717191271673713
  1.1211029884629848  2.1893241920859667 15.0000000000000000
  0.6014035634682526  0.7846503590119775 23.0696638466765336
  2.2383646131617589  1.7297502617054554 24.0309958191081137
  0.6014035634682526  2.6748501643989333 22.1083318742449570
