Ca Br I  Zn
 1.0000000000000000
     4.1552309611010347    0.0000000000000035    0.0000000000000000
    -2.0762295120878966    3.5993350563058595    0.0000000000000000
     0.0000000000000013    0.0000000000000022   42.1078606729777860
 Ca  Br  I   Zn 
   1   2   2   2
Cartesian
 -0.4290901705175719  1.5511369614099735 16.7571598031843862
  1.6489872995204859  2.7509153135119289 18.5143196063686446
  1.6489872995204859  2.7509153135119289 15.0000000000000000
  0.5093331111740473  0.7819591162845837 21.8045106395412915
  0.4991308375496352  3.1709401100878210 27.1078606729777860
  2.5757241506079214  1.9686181335387363 25.6419043784367773
  2.5883186509988856  1.9847944259941781 23.2703598756561227
