Ti Cl F  Pd
 1.0000000000000000
     3.2867270184333508   -0.0000000000000000    0.0000000000000000
    -1.6433635082757609    2.8480900769496014    0.0000000000000000
    -0.0000000000000012    0.0000000000000000   40.5912736422942828
 Ti  Cl  F   Pd 
   1   2   2   2
Cartesian
 -0.3575705244740062  1.3482554768161288 16.5858594364141609
  1.2857929850563070  2.2976188357993292 18.1717191271673713
  1.2857929850563070  2.2976188357993292 15.0000000000000000
 -0.5391481948879548  1.8983137580850440 21.7094198645860459
  2.7459121610634627  1.9022712400531832 25.5912736422942828
  1.1032611258496958  0.9516565736947897 24.4586655942751960
  1.1034216073339767  2.8492010992885120 22.8419773308484544
