Sn Te Ga Te
 1.0000000000000000
     4.1514961764787506   -0.0000000000000000    0.0000000000000000
    -2.0757480882393753    3.5953011525445628    0.0000000000000000
    -0.0000000000000000    0.0000000000000000   40.1007175467857166
 Sn  Te  Ga  Te 
   1   1   2   2
Cartesian
  2.0486286823762443  1.6123175245365848 16.6861605505646402
 -0.0271194058631310  2.8107512420514391 15.0000000000000000
  2.2504782197136954  1.3947023457850336 21.3538486613661505
  2.2504782197136954  1.3947023457850336 23.8276720846074781
  0.1747301314743212  2.5931360632998874 20.0808031869826422
  0.1747301314743211  2.5931360632998874 25.1007175467857166
