Si F  Zn Br
 1.0000000000000000
     3.8712053713584611    0.0000000000000000    0.0000000000000000
    -1.9356026856768538    3.3525621948620730    0.0000000000000000
     0.0000000000000013    0.0000000000000022   40.8859902400907274
 Si  F   Zn  Br 
   2   2   1   2
Cartesian
  1.2290822729678972  0.7787417534711485 16.6424290354395552
  1.2290822710439553  3.0137832167125294 17.3462560958598822
  1.2290822729678972  0.7787417534711480 15.0000000000000036
  1.2290822710439553  3.0137832167125298 18.9886851313004499
  0.7008785102272134  0.2740738288536501 24.4033916347591102
  2.6364811959072356  1.3915945604743409 25.8859902400907345
  0.7008785102287982  2.5091152920950317 22.9207930294275073
