Hg Cl Zn I 
 1.0000000000000000
     4.0469449260724915    0.0000000000000000    0.0000000000000000
    -2.0234724630362462    3.5047571136953142    0.0000000000000000
     0.0000000000000000    0.0000000000000000   39.3649243791457053
 Hg  Cl  Zn  I  
   1   2   1   2
Cartesian
  0.6209245405244077  0.7341213592581064 16.4596042885843232
  2.6443970035606554  1.9023737304898780 17.9192085771686678
  0.6209245405244082  3.0706261017216501 15.0000000000000018
  0.5843965686419710  0.8224337066995009 22.7375186106333196
  2.6078690316782165  1.9906860779312725 24.3649243791457053
  0.5843965686419703  3.1589384491630437 21.1101128421209339
