Ga S  Zn Cl
 1.0000000000000000
     3.6221012607054357    0.0000000000000000    0.0000000000000000
    -1.8110506303527181    3.1368317068505487    0.0000000000000000
     0.0000000000000000    0.0000000000000000   41.3843276500112296
 Ga  S   Zn  Cl 
   2   2   1   2
Cartesian
  1.9828911835155103  1.4415663054884198 16.0940275853641523
  1.9828911835155103  1.4415663054884198 18.5727461466075070
  0.1718405531627928  2.4871768744386027 15.0000000000000000
  0.1718405531627928  2.4871768744386027 19.6667737319714995
 -0.0994630090509400  0.6483606373356506 25.0168606614291136
  1.7115876213017769  1.6939712062858332 26.3843276500112296
 -0.0994630090509400  2.7395817752360161 23.6493936728469762
