Cd Br Pt Te
 1.0000000000000000
     4.0389483706336211   -0.0000000000000000    0.0000000000000000
    -2.0194741853168106    3.4978318935424815    0.0000000000000000
     0.0000000000000000    0.0000000000000000   39.1640682746583764
 Cd  Br  Pt  Te 
   1   2   1   2
Cartesian
  0.6352726467010809  0.7789910343860174 16.5666078507159398
  2.6547468320178913  1.9449349989001774 18.1332157014318902
  0.6352726467010811  3.1108789634143377 15.0000000000000000
  0.7639907140328077  0.9617658005551419 22.7768540451048622
  2.7834648993496178  2.1277097650693020 24.1640682746583728
  0.7639907140328077  3.2936537295834625 21.3896398165078345
