Ge F  In Te In
 1.0000000000000000
     4.3157652396790853   -0.0000000000000000    0.0000000000000000
    -2.1578826198395427    3.7375623343326270    0.0000000000000000
    -0.0000000000000013   -0.0000000000000023  -43.4906808528248376
 Ge  F   In  Te  In 
   2   2   1   2   1
Cartesian
  1.7670128807915300  0.5196494160295554 -26.7097741472461294
  1.7670128845610888  3.0113576389179721 -26.1166942619686040
  1.7670128807915300  0.5196494160295548 -28.4906808528248376
  1.7670128845610888  3.0113576389179730 -24.3357875251808480
  0.6270771157573818  3.4253304989915554 -16.3745681905474569
  2.7849661138162674  2.1790864456143333 -20.5577319829025100
  0.6270214329310821  0.9333104290233540 -14.9999999999999964
  0.6270240069414719  3.4255250900267562 -19.1831607748034827
