Zr Te Cd Br
 1.0000000000000000
     3.9922991287832250   -0.0000000000000000    0.0000000000000000
    -1.9961495643916127    3.4574324650327544    0.0000000000000000
     0.0000000000000000    0.0000000000000000   40.5706186612180701
 Zr  Te  Cd  Br 
   1   2   1   2
Cartesian
 -0.2655363042971933  1.1247042946490462 16.8615645620742107
  1.7306132600944197  2.2771817829932974 18.7231291241485991
  1.7306132600944197  2.2771817829932974 15.0000000000000000
  0.5938322321216887  0.9283843735137796 24.0040108105021197
  2.5899817965133014  2.0808618618580308 25.5706186612180701
  0.5938322321216889  3.2333393502022818 22.4374029597861799
