Hg Se Sr Br
 1.0000000000000000
     4.5379091344629545   -0.0000000000000000    0.0000000000000000
    -2.2689545672314777    3.9299445905103720    0.0000000000000000
     0.0000000000000000    0.0000000000000000  -37.1091538701022259
 Hg  Se  Sr  Br 
   1   1   1   2
Cartesian
  3.0632529029433160  1.5028749932339824 -21.7151564878270591
  0.7942983357118387  2.8128565234041067 -22.1091538701022259
  0.5864256615808914  0.5543352835427126 -16.5657235187943854
  2.8553802288123689  1.8643168137128370 -15.0000000000000018
  0.5864256615808913  3.1742983438829615 -18.1314470375887744
