Se Ti Zn I 
 1.0000000000000000
     4.0707968781146260    0.0000000000000000    0.0000000000000000
    -2.0353984379029724    3.5263424282342450    0.0000000000000000
     0.0000000000000000    0.0000000000000000   40.5686790834274049
 Se  Ti  Zn  I  
   2   2   1   2
Cartesian
  1.4036270682299665  1.0759704706737625 22.0093476255601246
  1.4037360111941077  3.4262705365659945 25.5686790834274049
  1.4034311496232930  1.0760388669785148 24.6426657616287770
  1.4039320121645347  3.4262021672399712 22.9354322489748839
  0.7364333541570319  0.0602243186644910 16.6274057685123893
  2.7718317935991248  1.2356717947425728 18.2548115370247714
  0.7364333549265920  2.4111192708206541 15.0000000000000000
