Pb Cl Br Hg
 1.0000000000000000
     4.1796911553811196    0.0010674728082233    0.0000000000000000
    -2.0889134997257304    3.6262164709296596    0.0000000000000000
     0.0000000000000034    0.0000000000000000   41.5025500613748974
 Pb  Cl  Br  Hg 
   1   2   2   2
Cartesian
 -0.4058904265088266  1.6158291775574400 16.7004028302812557
  1.6842658438366762  2.8252796497394757 18.4008056605625043
  1.6842658438366758  2.8252796497394757 15.0000000000000000
  1.1339824188675036 -0.3805169020354174 20.7328977882139149
  1.1445965879143432  4.4327680902331075 26.5025500613748974
  1.1490989702218164  2.0123873561896084 24.9507894055348558
  1.1300357748023970  2.0395450286729897 22.2841670823211260
