Cl Cd In Se In
 1.0000000000000000
     4.0083879395930566    0.0012519794577290    0.0000000000000000
    -2.0031007876935503    3.4783566834220525    0.0000000000000000
     0.0000000000000035    0.0000000000000000   44.1410694087693045
 Cl  Cd  In  Se  In 
   2   2   1   2   1
Cartesian
  1.1345304835470189 -0.8081837258912626 15.0000000000000000
  1.1471130966988630  3.8067252530520368 20.5111542448488748
  1.1474286205744504  1.4879220624189033 19.0920396605243461
  1.1342739970033808  1.5106177308557542 16.4189511839095843
  0.5796586948338204  3.1736452839313261 27.8706536596503689
  2.5834963217620039  2.0142566787540561 23.7853414267912626
  0.5787796503814420  0.8541088825975737 29.1410694087693045
  0.5795167312109176  3.1738548804787428 25.0557493914793774
