Sr Cl I  Zn
 1.0000000000000000
     4.2079897846458874    0.0000000000000035    0.0000000000000000
    -2.1026089238603225    3.6450255377694818    0.0000000000000000
     0.0000000000000013    0.0000000000000022   41.9045804993620763
 Sr  Cl  I   Zn 
   1   2   2   2
Cartesian
 -0.4740141345479792  1.5848325910573453 16.6559757380194853
  1.6304427472625047  2.7998411036471751 18.3119514760389670
  1.6304427472625047  2.7998411036471746 15.0000000000000000
  0.4964105238231561  0.8255575338937540 21.6012304659255712
  0.4860670322609390  3.2448645990703913 26.9045804993620692
  2.5890326569670283  2.0272801728956242 25.4386242048210605
  2.6017869902051980  2.0436618095546546 23.0670797020404059
