Ti Cl Pb O 
 1.0000000000000000
     3.3406208795277132    0.0000000000000000    0.0000000000000000
    -1.6703104397638566    2.8930625460837138    0.0000000000000000
     0.0000000000000000    0.0000000000000000   34.5054960314375805
 Ti  Cl  Pb  O  
   1   2   1   2
Cartesian
 -0.3872112235005557  1.0396530761944252 16.5858594364141609
  1.2830992162633004  2.0040072582223294 18.1717191271673713
  1.2830992162633004  2.0040072582223294 15.0000000000000000
  0.5705810329832457  0.9001556727273722 18.4468768752929080
  2.2408914727471023  1.8645098547552768 19.5054960314375876
  0.5705810329832457  2.8288640367831812 17.3882577191482284
