Al Se Al Br Pt
 1.0000000000000000
     3.7741920274840419    0.0000194514724014    0.0000000000000000
    -1.8870791611176319    3.2685680685940923    0.0000000000000000
    -0.0000000000000002   -0.0000000000000000   42.8775057372961399
 Al  Se  Al  Br  Pt 
   1   2   1   2   2
Cartesian
  0.7133123059473960  2.7962849656094639 18.7386451449391878
  2.6004411795427713  1.7068227502281719 15.0000000000000000
  0.7132055020986130  0.6173634221999340 19.8990279270139681
  0.7132552117847211  2.7963210460183903 16.1603825001332311
 -0.7957130873518586  1.2858601065393540 23.5426544648399201
  2.9783512786517097  1.2860221048646820 27.8775057372961399
  1.0911752701742801  0.1963563785933546 26.4349568210922570
  1.0912184420893358  2.3753702417025222 24.9841962092346890
