Ca Br Ge Br Ge Br
 1.0000000000000000
     4.1830332296571733   -0.0506467540195987    0.0000000000000001
    -2.0477392972941333    3.6482294146667629    0.0000000000000001
     0.0000000000000021   -0.0000000000000000   37.4683342307452421
 Ca  Br  Ge  Br  Ge  Br 
   1   2   1   1   1   1
Cartesian
  3.1972022392802093  2.0871892276650437 16.7571598031843862
  5.3033112932869457  3.2695011965408982 18.5143196063686446
  5.3033112932869457  3.2695011965408982 15.0000000000000018
  0.6427239689832791  0.5765329586947159 19.4389855405793739
 -1.4684350081236632 -0.6082070407598352 22.4683342307452421
 -1.4639605744484629 -0.6059363169636305 20.1182095416741760
 -3.5403503342762459  0.6245287830736763 17.0888433212025106
