Ga S  Hf Se
 1.0000000000000000
     3.7089637195960932    0.0000000000000000    0.0000000000000000
    -1.8544818597980466    3.2120568028850398    0.0000000000000000
     0.0000000000000000    0.0000000000000000   41.8011420863014820
 Ga  S   Hf  Se 
   2   2   1   2
Cartesian
  2.0260330808442606  1.4609259852180743 16.0940275853641523
  2.0260330808442606  1.4609259852180743 18.5727461466075070
  0.1715512210462141  2.5316115861797539 15.0000000000000000
  0.1715512210462141  2.5316115861797539 19.6667737319714995
 -0.0841076894032955  0.6583076007515998 25.2252530655219829
  1.7703741703947506  1.7289932017132796 26.8011420863014820
 -0.0841076894032957  2.7996788026749595 23.6493640447448072
