Pb Se Bi O 
 1.0000000000000000
     4.0270532309903579    0.0000000000000000    0.0000000000000000
    -2.0135266154951790    3.4875304004298444    0.0000000000000000
     0.0000000000000000    0.0000000000000000  -38.8128644166854002
 Pb  Se  Bi  O  
   1   1   2   2
Cartesian
  2.4298819040977246  1.6886540036255295 -22.2646223699436980
  0.4163552886025454  2.8511641371021441 -23.8128644166854002
  2.5236287000151507  1.3510906674035299 -18.2805652471915465
  2.5236287000151507  1.3510906674035299 -15.1279490437487674
  0.5101020845199717  2.5136008008801447 -18.4085143927414840
  0.5101020845199717  2.5136008008801447 -14.9999999999999964
