Ge Br Ge Br Cd I 
 1.0000000000000000
     4.2857988594107788   -0.0506467540195987    0.0000000000000001
    -2.0991221121709369    3.7372270606692921    0.0000000000000001
    -0.0000000000000021    0.0000000000000000  -36.9530495436643491
 Ge  Br  Ge  Br  Cd  I  
   1   1   1   1   1   2
Cartesian
  0.8163146766614333  0.9353608325063916 -19.6029073242874823
 -1.3463504392308685 -0.2791061872064948 -16.5735586341216177
 -1.3417667710815135 -0.2767783600118763 -18.9236833231926838
 -3.4695254784352527  0.9832915334081838 -21.9530495436643456
  3.9384028514007876  0.6331505490975475 -16.7205164217779085
  6.0958947202843277  1.8451283999742456 -15.0000000000000000
  3.9675877297570890  3.1077530048705424 -18.4410328435558242
