Tl Te Pb Br
 1.0000000000000000
     4.4990746333116869    0.0000000000000000    0.0000000000000000
    -2.2495373166558439    3.8963129259700779    0.0000000000000000
    -0.0000000000000000    0.0000000000000000   42.9588719335656464
 Tl  Te  Pb  Br 
   2   2   1   2
Cartesian
  2.2450529655253075  1.7287398933626013 16.3836225870480945
  2.2450529655253075  1.7287398933626013 19.2838467229453485
 -0.0044843511305362  3.0275108686859600 15.0000000000000000
 -0.0044843511305362  3.0275108686859600 20.6674692707617140
  0.0237937379784639  0.9694807267209047 26.2946002659260145
  2.2733310546343071  2.2682517020442630 27.9588719335656464
  0.0237937379784635  3.5670226773676217 24.6303285982863898
