Hf Se Ti I 
 1.0000000000000000
     3.7228757781405193    0.0000000000000000    0.0000000000000000
    -1.8614378890702596    3.2241049990034494    0.0000000000000000
     0.0000000000000000    0.0000000000000000   40.9927635064723646
 Hf  Se  Ti  I  
   1   2   1   2
Cartesian
  0.2515213597147671  1.4337949014517779 16.6825459715619751
  2.1129592487850264  2.5084965677862616 18.3650919482088710
  2.1129592487850264  2.5084965677862616 15.0000000000000000
  0.3150211573277859  1.4082322837068399 24.1783977215894446
  2.1764590463980449  2.4829339500413230 25.9927635064723646
  2.1764590463980449  2.4829339500413230 22.3640319403318273
