Mg Br Ru Br
 1.0000000000000000
     3.8319669394050804   -0.0000000000000000    0.0000000000000000
    -1.9159834697025406    3.3185807159869043    0.0000000000000000
     0.0000000000000000    0.0000000000000000  -38.8828786186861919
 Mg  Br  Ru  Br 
   1   2   1   2
Cartesian
  0.7626621481791409  1.0372547020569853 -16.5070256484157625
  2.6786456178816791  2.1434482740526213 -15.0000000000000036
  0.7626621481791405  3.2496418460482572 -18.0140512968315250
  0.8785601577149278  0.9557851624296287 -22.5660294647365909
  2.7945436274174673  2.0619787344252640 -21.2491803107869899
  0.8785601577149276  3.1681723064208991 -23.8828786186861919
