I  Zn S  Zr
 1.0000000000000000
     4.1934714815410592    0.0000000000000035    0.0000000000000000
    -2.0953497711096905    3.6329540525016770    0.0000000000000000
     0.0000000000000013    0.0000000000000022   41.9271886867165477
 I   Zn  S   Zr 
   2   2   2   2
Cartesian
  0.4542899759564167  1.0061718027222590 15.0000000000000000
  0.4439853458896950  3.4174666799751194 20.3033500334364945
  2.5396937724729125  2.2039146130556104 18.8373937388954857
  2.5524041225196115  2.2202419975061054 16.4658492361148348
  0.4651188517534715  0.9593553017831742 23.5993269706049276
  0.4663277227430511  3.3808687393859005 26.9271886867165477
  0.4651890004774599  0.9592727958441720 26.2231355733466458
  0.4662575630315264  3.3809512482869750 24.3034180903073960
