Tl S  Cd Cl
 1.0000000000000000
     3.9785261531677349   -0.0000000000000000    0.0000000000000000
    -1.9892630765838675    3.4455047182640364    0.0000000000000000
     0.0000000000000000    0.0000000000000000   42.1461214262468005
 Tl  S   Cd  Cl 
   2   2   1   2
Cartesian
  2.2020659183731559  1.4918534560910115 16.1978423164646763
  2.2020659183731559  1.4918534560910115 19.0837598082548148
  0.2128028417892883  2.6403550288456903 15.0000000000000000
  0.2128028417892882  2.6403550288456903 20.2816021247199672
  0.0396101093673026  0.5973741294018009 25.7082500096345044
  2.0288731859511695  1.7458757021564804 27.1461214262468005
  0.0396101093673028  2.8943772749111596 24.2703785930222296
