Ba Cl I  In
 1.0000000000000000
     4.5060862673964461   -0.0000000000000000    0.0000000000000000
    -2.2530431324190658    3.9038492573685275    0.0000000000000000
     0.0000000000000000    0.0000000000000000   43.1464972217838039
 Ba  Cl  I   In 
   1   2   2   2
Cartesian
 -0.3208997543568302  1.6327604277071044 16.6919307837616344
  1.9321433797677783  2.9340435134966132 18.3838615675232653
  1.9321433797677783  2.9340435134966132 15.0000000000000018
  1.3401291599511025  0.8225166054020332 21.7940326489041674
  1.3401902407966624  3.4245156428813885 28.1464972217838003
  1.3393903471687683  0.8229614150994242 26.2878228223174659
  1.3409291893698509  3.4240712948626566 23.6535156501043957
