Hf Cl S  Ir
 1.0000000000000000
     3.3143434194978996    0.0000000000000000    0.0000000000000000
    -1.6571717088123536    2.8706239598260632    0.0000000000000000
    -0.0000000000000000    0.0000000000000000   41.7660280102169637
 Hf  Cl  S   Ir 
   1   2   2   2
Cartesian
 -0.3568786850996528  1.3314108273639895 16.7299570918342511
  1.3002930249614959  2.2882854806393436 18.4599141836685092
  1.3002930249614959  2.2882854806393436 15.0000000000000000
  1.0646819960822433  0.6822511987399396 22.1157342321968109
  1.0645323105714715  2.5961451631719803 26.7660280102169637
  1.0644895210656793  0.6826033956146038 25.5133596997424164
  1.0647250335565781  2.5957926979543866 23.3684186912111400
