Pt S  Sn S 
 1.0000000000000000
     3.6347940924956741    0.0000000000000000    0.0000000000000000
    -1.8173970462478370    3.1478240216268585    0.0000000000000000
     0.0000000000000000    0.0000000000000000  -38.7619086595794897
 Pt  S   Sn  S  
   1   2   1   2
Cartesian
  0.8253777047520351  0.9534857175657814 -22.5298812900790253
  2.6427747509998718  2.0027603914414005 -21.2978539205785538
  0.8253777047520350  3.0520350653170203 -23.7619086595794933
  0.6412526458393112  0.8078173921489749 -16.4775714027844238
  2.4586496920871483  1.8570920660245942 -15.0000000000000000
  0.6412526458393112  2.9063667399002133 -17.9551428055688476
