Br Cd Br Cu
 1.0000000000000000
     4.0284378182422920    0.0014024937248978    0.0000000000000000
    -2.0129943024904078    3.4953612908047287    0.0000000000000000
     0.0000000000000033    0.0000000000000000   42.0753462074729256
 Br  Cd  Br  Cu 
   2   2   2   2
Cartesian
  1.2651405285814519 -0.2962324965288149 15.0000000000000000
  1.2782209256968706  4.3411139949997350 20.7228492099078032
  1.2780262757677348  2.0110356005271757 19.2010592037222949
  1.2649290757892471  2.0341743496816020 16.5215258816320976
  1.2220662987117550  0.9920435955910183 23.4422179748508732
  1.2238184967754282  3.3217825977555648 27.0753462074729256
  1.2217122509793705  0.9922760315195840 25.9280082649876249
  1.2241703979390575  3.3215510052573354 24.5898964799641782
