Al S  Ge S 
 1.0000000000000000
     3.5137818728433201    0.0000000000000000    0.0000000000000000
    -1.7568909364216601    3.0430243652395772    0.0000000000000000
    -0.0000000000000000    0.0000000000000000   41.5084049284810277
 Al  S   Ge  S  
   2   2   1   2
Cartesian
  1.9024020688947572  1.4252542866846587 16.0691806254429004
  1.9024020688947572  1.4252542866846587 18.6673481735629565
  0.1455111324730974  2.4395957417645175 15.0000000000000000
  0.1455111324730974  2.4395957417645175 19.7365287990058356
 -0.1554662421146217  0.6982442093467669 25.1113958026445303
  1.6014246943070385  1.7125856644266260 26.5084049284810277
 -0.1554662421146217  2.7269271195064850 23.7143866768078482
