Sn S  Zn Br
 1.0000000000000000
     3.7750742812007276   -0.0000000000000000    0.0000000000000000
    -1.8875371406003640    3.2693102286931093    0.0000000000000000
    -0.0000000000000000    0.0000000000000000   37.9477324056690932
 Sn  S   Zn  Br 
   1   1   1   2
Cartesian
  2.1341732945142948  1.1545097601287002 16.4598471617338120
  0.2466361539139310  2.2442798363597358 15.0000000000000000
  0.7614655416620151  0.2795766607582857 21.4651338003374725
  2.6490026822623780  1.3693467369893217 22.9477324056690932
  0.7614655416620153  2.4591168132203576 19.9825351950058696
