Sr Br I  Au
 1.0000000000000000
     4.7021150602690298   -0.0000000000000000    0.0000000000000000
    -2.3510575301345140    4.0723853235066310    0.0000000000000000
     0.0000000000000000    0.0000000000000000   36.9482354518433951
 Sr  Br  I   Au 
   1   2   1   1
Cartesian
  1.1201202668997723  0.5905438719485470 16.5657235187943854
  3.4711777970342874  1.9480056464507578 18.1314470375887709
  1.1201202668997730  3.3054674209529686 15.0000000000000000
  0.3788159604526611  1.5328319350670423 21.9482354518433951
  2.7298734905871767  2.8905029834712606 21.9482354518433951
