In Se Tl Se
 1.0000000000000000
     4.1484452005976848    0.0000000000000000    0.0000000000000000
    -2.0742226002988424    3.5926589299252263    0.0000000000000000
     0.0000000000000000    0.0000000000000000   44.8247342724462712
 In  Se  Tl  Se 
   2   2   2   2
Cartesian
  2.1772514742448754  1.4496473033132347 16.2765302461401262
  2.1772514742448754  1.4496473033132347 19.0907759595263933
  0.1030288739460333  2.6472002799549768 15.0000000000000000
  0.1030288739460333  2.6472002799549768 20.3673061832687665
  2.4301499022902950  1.6048998712752012 25.6437354058406406
  2.4301499022902950  1.6048998712752012 28.5369041900035221
  0.3559273019914528  2.8024528479169430 24.3559053644018988
  0.3559273019914528  2.8024528479169430 29.8247342724462641
