Sn Te Zn
 1.0000000000000000
     4.2510617747837482   -0.0000000000000000    0.0000000000000000
    -2.1255308861553779    3.6820530239978488    0.0000000000000000
     0.0000000000000000    0.0000000000000000  -39.1520988587073333
 Sn  Te  Zn 
   1   3   2
Cartesian
  2.8677391704750201  1.3046075278122498 -22.4659383081426967
  0.7422082834953114  2.5319585358115324 -24.1520988587073333
  1.3822622945806324  1.0678345167804402 -18.7597473661473586
  1.3823675244454481  3.5222624257067237 -15.0000000000000036
  1.3821304737032674  1.0679194522086566 -15.9487888711410886
  1.3824991186656430  3.5221771327642060 -17.8106071591424282
