Sn O  B  P 
 1.0000000000000000
     3.2176659355500119    0.0000000000000000    0.0000000000000000
    -1.6088329677750060    2.7865804410781330    0.0000000000000000
     0.0000000000000000    0.0000000000000000  -36.0096373638618488
 Sn  O   B   P  
   1   2   1   1
Cartesian
  0.4980348788158748  0.3714028265776093 -16.0089623246724102
  2.1068678465908812  1.3002629736036535 -14.9999999999999982
  0.4980348788158748  2.2291231206296978 -17.0179246493448275
  0.7360608060347696  2.1138410839287749 -21.0096373638618488
  2.3448937738097766  1.1849809369027304 -21.0096373638618488
