Hg Se Ca I 
 1.0000000000000000
     4.5063192302476969   -0.0000000000000000    0.0000000000000000
    -2.2531596151238489    3.9025869309568422    0.0000000000000000
     0.0000000000000000    0.0000000000000000   37.5236873952585697
 Hg  Se  Ca  I  
   1   1   1   2
Cartesian
  2.9905143342405220  1.5474093848271142 15.3939973822751632
  0.7373547191166739  2.8482716951460616 14.9999999999999964
  0.6119596160073444  0.5589784880690480 20.7550104855602910
  2.8651192311311924  1.8598407983879957 22.5236873952585697
  0.6119596160073439  3.1607031087069433 18.9863335758619840
