Cr Se B  P 
 1.0000000000000000
     3.2129949869414332    0.0000000000000000    0.0000000000000000
    -1.6064974934707166    2.7825352809233319    0.0000000000000000
     0.0000000000000000    0.0000000000000000  -37.0819431309712542
 Cr  Se  B   P  
   1   2   1   1
Cartesian
  0.0414078925622508  0.8361187380527185 -16.5737644427049204
  1.6479053860329673  1.7636304983604958 -14.9999999999999964
  1.6479053860329673  1.7636304983604958 -18.1475288854098409
  0.4600034973324056  2.1014423144649825 -22.0819431309712506
  2.0665009908031231  1.1739305541572054 -22.0819431309712506
