S  Hf S  Zr
 1.0000000000000000
     4.1716538718113405    0.0000000000000000    0.0000000000000000
    -2.0858269335227551    3.6137925926165213    0.0000000000000000
    -0.0000000000000000    0.0000000000000000   39.9486792304711571
 S   Hf  S   Zr 
   2   2   2   2
Cartesian
  1.2347015623314133  0.8529605900763648 15.0000000000000000
  1.2350275945103268  3.2616374460642121 18.3254866465823731
  1.2348292915049242  0.8528354325242936 17.6045811352982824
  1.2348998553401342  3.2617626088447498 15.7209963454440533
  1.2613439684426000  0.9292096596799786 21.6208175143595369
  1.2616275520593914  3.3379511954294339 24.9486792304711571
  1.2614137835120274  0.9291275889059186 24.2446261171012551
  1.2615577260584689  3.3380332691499435 22.3249086340620053
