Hf I  Ti I 
 1.0000000000000000
     3.7710394355306676    0.0000000000000000    0.0000000000000000
    -1.8855197177653338    3.2658159498424877    0.0000000000000000
     0.0000000000000000    0.0000000000000000   41.5124062026227421
 Hf  I   Ti  I  
   1   2   1   2
Cartesian
  0.1427563316829240  1.6597887670931750 16.9476853944779826
  2.0282760494482575  2.7483940837073373 18.8953707810581477
  2.0282760494482575  2.7483940837073373 15.0000000000000000
  0.3556045023394175  1.4487663398372634 24.6980404177398185
  2.2411242201047510  2.5373716564514259 26.5124062026227421
  2.2411242201047510  2.5373716564514259 22.8836746364821977
