Mo Se Pb O 
 1.0000000000000000
     3.3609813773151269    0.0000000000000000    0.0000000000000000
    -1.6804906886575635    2.9106952544013112    0.0000000000000000
     0.0000000000000000    0.0000000000000000  -39.3093774844499109
 Mo  Se  Pb  O  
   1   2   1   2
Cartesian
 -0.3699825473383052  1.0530007707734876 -16.6690294767631997
  1.3105081413192583  2.0232325222405914 -14.9999999999999964
  1.3105081413192583  2.0232325222405914 -18.3380589535264065
  0.7016217059148380  1.0008283356733467 -23.2507583283052313
  2.3821123945724012  1.9710600871404502 -22.1921391721605517
  0.7016217059148380  2.9412918386075537 -24.3093774844499109
