F  Pd S  Ir
 1.0000000000000000
     3.2868667324796252   -0.0000000000000000    0.0000000000000000
    -1.6434333643623020    2.8485294345380394    0.0000000000000000
    -0.0000000000000013    0.0000000000000000   41.7240374326712100
 F   Pd  S   Ir 
   2   2   2   2
Cartesian
 -0.4603111704744509  1.6062824652780143 15.0000000000000000
  2.8248888286771137  1.6102405577429026 18.8818537777082369
  1.1821679664138596  0.6594792458234280 17.7492457296891502
  1.1823284553439599  2.5573164941064590 16.1325574662624049
  0.9913949384734980  0.0456686324109088 22.0737436546510537
  0.9912464945233411  1.9448317999195166 26.7240374326712029
  0.9912040591202389  0.0460181185081036 25.4713691221966592
  0.9914376197894252  1.9444820475447657 23.3264281136653793
