Se Cd I  Hg
 1.0000000000000000
     4.4540967406459577   -0.0000000000000011    0.0000000000000000
    -2.2270483677787283    3.8744828905826694    0.0000000000000000
    -0.0000000000000035    0.0000000000000000  -42.6001595473346910
 Se  Cd  I   Hg 
   2   2   2   2
Cartesian
  1.6589239103990399  1.1326061866522088 -27.6001595473347017
  1.6592811235701166  3.7146461665530728 -24.0115679310784600
  1.6585246445305286  1.1328127401994070 -24.7098424439501905
  1.6596823416099649  3.7144390202697837 -26.9020967100349893
  1.3322497380783047 -0.1153755548662966 -20.9242317454966695
  1.3420029460878666  5.0151070467492858 -15.0000000000000000
  1.3505858926776102  2.4358060512051178 -16.6201123207575918
  1.3290526411214514  2.4600626074951055 -19.3035734902438172
