I  Cd S  Cd
 1.0000000000000000
     4.3581955178807643    0.0008383076656587    0.0000000000000000
    -2.1783657779908934    3.7830288695951944    0.0000000000000000
     0.0000000000000033    0.0000000000000000   42.6284745391609761
 I   Cd  S   Cd 
   2   2   2   2
Cartesian
  1.3957726338784588 -0.6478483580240019 15.0000000000000000
  1.4073018311288961  4.3648685049294720 20.9102076548876994
  1.4124720296334365  1.8452439439306489 19.2986420562647361
  1.3936739299725283  1.8695925147671142 16.6116177631989359
  1.4862930318582928  0.9829482422248645 24.3910661353136220
  1.4871035393244174  3.5039988230510977 27.6284745391609761
  1.4859170735008700  0.9830195061970257 27.2044159808762913
  1.4874797265765172  3.5039275819362334 24.8150170279731910
