Cr Se Hf O 
 1.0000000000000000
     3.2322971149832314    0.0000000000000000    0.0000000000000000
    -1.6161485574916157    2.7992514141546287    0.0000000000000000
     0.0000000000000000    0.0000000000000000   39.0007203634234259
 Cr  Se  Hf  O  
   1   2   1   2
Cartesian
 -0.5725293947609766  1.1303572868684046 16.5737644427049204
  1.0436191627306393  2.0634410915866139 18.1475288854098444
  1.0436191627306393  2.0634410915866139 15.0000000000000000
  0.5179553365493077  0.8628772880921358 23.0282907716899672
  2.1341038940409236  1.7959610928103453 24.0007203634234259
  0.5179553365493077  2.7290448975285546 22.0558611799565085
