I  Cu Tl S  Tl
 1.0000000000000000
     4.1189818209556890    0.0000000000000000    0.0000000000000000
    -2.0594909092848632    3.5671428926076074    0.0000000000000000
     0.0000000000000000    0.0000000000000000   42.7277310128451688
 I   Cu  Tl  S   Tl 
   2   2   1   2   1
Cartesian
  1.1414101968493851  0.1635139016383449 15.0000000000000000
  1.1414101770497971  2.5416091752672267 18.8558029306399995
  1.1414101968493853  0.1635139016383452 17.6212990317599960
  1.1414101770497969  2.5416091752672259 16.2370991544799992
  0.7328065206903873  3.1294816677881108 26.5308736270135981
  2.7921494100941993  1.9399644127371658 22.4499836006881921
  0.7324758980734110  0.7510819375443147 27.7277310128451688
  0.7323278733302453  3.1299537574468763 23.6468388819996420
