Sr I  Sb Se Sb
 1.0000000000000000
     4.7259832896674867   -0.0000000000000000    0.0000000000000000
    -2.3629916448337434    4.0929170493227698    0.0000000000000000
     0.0000000000000000    0.0000000000000000  -40.8696256562688518
 Sr  I   Sb  Se  Sb 
   1   2   1   2   1
Cartesian
  0.3945191622206847  0.7409479732226882 -17.0028850106791580
  2.7575108070544281  2.1052536563302784 -15.0000000000000018
  2.7575108070544281  2.1052536563302784 -19.0057700213581597
  0.8856853726946885  3.7877412677345350 -22.6779610735651680
  3.2528820990851974  2.4281400555312955 -25.8696256562688518
  0.8848853941252588  1.0594420338386605 -22.3826755368263406
  0.8890595368717968  3.7925873950919775 -25.5744328709524851
