Pb O  Pt S 
 1.0000000000000000
     3.5832730141175153   -0.0000000000000000    0.0000000000000000
    -1.7916365070587577    3.1032054589210034    0.0000000000000000
    -0.0000000000000000    0.0000000000000000   36.9960824003028534
 Pb  O   Pt  S  
   1   1   1   2
Cartesian
  2.0703208373985627  1.2472101770571511 15.9428404019710115
  0.2786843303398053  2.2816119966974853 15.0000000000000000
  0.6833066670248662  0.2700454147015212 20.7640550308023855
  2.4749431740836241  1.3044472343418556 21.9960824003028534
  0.6833066670248660  2.3388490539821896 19.5320276613019139
