W  Te Zr S 
 1.0000000000000000
     3.6161740127920248    0.0000000000000000    0.0000000000000000
    -1.8080870063960124    3.1316985595830067    0.0000000000000000
    -0.0000000000000000    0.0000000000000000   40.4428563972070734
 W   Te  Zr  S  
   1   2   1   2
Cartesian
 -0.7300322863499151  1.4609515803940489 16.8119622132334641
  1.0780547200460975  2.5048511002550509 18.6239244264669317
  1.0780547200460975  2.5048511002550509 15.0000000000000000
  0.5040775393545660  0.9210786874363139 23.9969739544630052
  2.3121645457505777  1.9649782072973159 25.4428563972070663
  0.5040775393545659  3.0088777271583180 22.5510915117188766
