Br Pt Zr Se
 1.0000000000000000
     3.7754998057230416    0.0000194514724014    0.0000000000000000
    -1.8877330502371317    3.2697041299263896    0.0000000000000000
    -0.0000000000000002   -0.0000000000000000   40.5678466097667894
 Br  Pt  Zr  Se 
   2   2   1   2
Cartesian
 -0.6555085446255603  2.0915614766362833 15.0000000000000000
  3.1198635553813490  2.0917235245069259 19.3348512724562163
  1.2320336320125467  1.0016790659167825 17.8923023562523369
  1.2320768149939583  3.1814502900398214 16.4415417443947689
  0.5934951001300866  0.3376328494577821 23.9872413046347610
  2.4812506205330704  1.4275471937481796 25.5678466097667894
  0.5935063352130127  2.5174420865661751 22.4066359995026119
