Mo Te Zr Se
 1.0000000000000000
     3.5715638956106117    0.0000000000000000    0.0000000000000000
    -1.7857819478053059    3.0930650648381026    0.0000000000000000
    -0.0000000000000000    0.0000000000000000   43.3662789459693343
 Mo  Te  Zr  Se 
   1   2   2   2
Cartesian
 -0.3747511656089611  1.3762146077194206 16.8050999999999995
  1.4110307821963448  2.4072362959987883 18.6101999999999990
  1.4110307821963448  2.4072362959987883 15.0000000000000000
  1.9069304773786571  1.2566782076487955 24.0074306085367120
  1.9069304773786571  1.2566782076487955 26.7536731172202948
  0.1211485295733516  2.2876998959281627 22.3948245223381193
  0.1211485295733515  2.2876998959281627 28.3662789459693414
