Hf Se Zr S 
 1.0000000000000000
     3.7274358574293833   -0.0000000000000000    0.0000000000000000
    -1.8637179287146917    3.2280541435108767    0.0000000000000000
    -0.0000000000000000    0.0000000000000000  -39.2092241922174622
 Hf  Se  Zr  S  
   1   2   1   2
Cartesian
  0.6954644899409853  1.0879899833630722 -16.5758890207794991
  2.5591824186556766  2.1640080312000309 -14.9999999999999982
  0.6954644899409852  3.2400260790369897 -18.1517780415566747
  0.7540536914599596  0.6515674485273721 -22.7633417494733372
  2.6177716201746506  1.7275854963643309 -21.3174593067292726
  0.7540536914599594  2.8036035442012892 -24.2092241922174622
