Ti Te Ni Se
 1.0000000000000000
     3.5749704936710467    0.0000000000000000    0.0000000000000000
    -1.7874852468355233    3.0960152652989219    0.0000000000000000
     0.0000000000000000    0.0000000000000000   41.8148909466309462
 Ti  Te  Ni  Se 
   2   2   1   2
Cartesian
  2.0705055400045564  1.4141063939204637 22.7206130441762930
  2.0705055400045564  1.4141063939204637 25.0997294229255452
  0.2830202931690333  2.4461114823534373 21.0054545091186888
  0.2830202931690333  2.4461114823534373 26.8148909466309533
  0.1924229670138493  0.5402531115978491 16.2453409434781548
  1.9799082138493720  1.5722582000308229 17.4906818874949650
  0.1924229670138491  2.6042632884637968 15.0000000000000000
