Hg Br Pb Se
 1.0000000000000000
     4.0712213743841321    0.0000000000000000    0.0000000000000000
    -2.0356106871920661    3.5257811346468548    0.0000000000000000
     0.0000000000000000    0.0000000000000000   39.7566771227545956
 Hg  Br  Pb  Se 
   1   2   1   2
Cartesian
  0.5353612380585386  0.7594437260599782 16.5894075761307960
  2.5709719252506034  1.9347041042755966 18.1788151522615991
  0.5353612380585383  3.1099644824912147 15.0000000000000000
  0.6273024831836775  0.8976147393966183 23.0875779662541376
  2.6629131703757438  2.0728751176122371 24.7566771227545956
  0.6273024831836773  3.2481354958278557 21.4184788097536831
