Mo Se Ge S 
 1.0000000000000000
     3.3816536608880012    0.0000000000000000    0.0000000000000000
    -1.6908268304440006    2.9285979771296562    0.0000000000000000
    -0.0000000000000000    0.0000000000000000   34.2945929899252491
 Mo  Se  Ge  S  
   1   2   1   2
Cartesian
 -0.7095214788730340  1.4286748880526059 16.6690294767632068
  0.9813053515709664  2.4048742137624912 18.3380589535264100
  0.9813053515709664  2.4048742137624912 15.0000000000000000
  0.5714901672644471  0.9016964698134510 17.8975838640887517
  2.2623169977084481  1.8778957955233362 19.2945929899252455
  0.5714901672644471  2.8540951212332213 16.5005747382520696
