Ti Te Si Se
 1.0000000000000000
     3.5582161477315095   -0.0000000000000001    0.0000000000000000
    -1.7789162070947817    3.0820923987864139    0.0000000000000000
     0.0000000000000013    0.0000000000000023   42.6793208151258128
 Ti  Te  Si  Se 
   2   2   1   2
Cartesian
  2.0535928794288978  1.3417863360796196 23.5850429126711418
  2.0535928794288978  1.3417863360796198 25.9641592914203940
  0.2745487611534673  2.3691504690084240 21.8698843776135377
  0.2745487611534675  2.3691504690084244 27.6793208151258057
  0.1778111377444153  0.5668308238175797 16.4396280578599168
  1.9575150826302978  1.5933693239127937 15.0000000000000000
  0.1779932888589655  2.6207996938656697 17.8792530868155595
