Mo S  Al N 
 1.0000000000000000
     3.1593284309290146    0.0000000000000000    0.0000000000000000
    -1.5796642154645073    2.7360586800829569    0.0000000000000000
     0.0000000000000000    0.0000000000000000   37.0629608639184553
 Mo  S   Al  N  
   1   2   1   1
Cartesian
  0.0414476970456442  0.8205780680376298 20.4994045407426952
  1.6211119125101514  1.7325976280652819 22.0629608639184553
  1.6211119125101514  1.7325976280652819 18.9358482175669351
  0.4600318438711616  2.0704818909426428 15.0000000000000036
  2.0396960593356690  1.1584623309149902 15.0000000000000018
