Br Pt Cd Cl
 1.0000000000000000
     3.8278805797973985    0.0000194514724014    0.0000000000000000
    -1.9139234372743104    3.3150672109446759    0.0000000000000000
    -0.0000000000000002   -0.0000000000000000   39.5942343255659495
 Br  Pt  Cd  Cl 
   2   2   1   2
Cartesian
 -0.4831525413328705  2.1314718095706340 20.2593830531097403
  3.3445985609663524  2.1316358357923186 24.5942343255659566
  1.4305772183129828  1.0264685450325719 23.1516854093620772
  1.4306208445379385  3.2364812957841593 21.7009247975045092
  0.7137963509543607  0.2280313356241910 16.4378714166122748
  2.6277422583945222  1.3330667069206843 17.8757428332245709
  0.7138075860372869  2.4380826267447762 15.0000000000000000
