Ti Se Cl Pt
 1.0000000000000000
     3.5633168294838025    0.0000000000000002    0.0000000000000000
    -1.7816584137047593    3.0864906462559447    0.0000000000000000
    -0.0000000000000002    0.0000000000000000   40.7600696569338297
 Ti  Se  Cl  Pt 
   1   2   2   2
Cartesian
 -0.2929529796053201  1.3902492155065498 16.6199398271809429
  1.4887054354822953  2.4190794309251986 18.2398796543619497
  1.4887054354822953  2.4190794309251986 15.0000000000000000
 -0.6047624276635526  1.7252213421056317 21.5767396149543131
  2.9574604351803493  1.7263610682465784 25.7600696569338297
  1.1766076597547686  0.6974060695592657 24.4112867926776929
  1.1768204892079772  2.7546424972035699 22.9275237430193251
