Ca Br Hg
 1.0000000000000000
     4.1490610387472806    0.0010674728082233    0.0000000000000000
    -2.0735984414088113    3.5996900118038750    0.0000000000000000
     0.0000000000000034    0.0000000000000000   41.6021040896103500
 Ca  Br  Hg 
   1   4   2
Cartesian
 -0.5410766143344261  1.6783677404956916 16.7571598031843862
  1.5337645976941574  2.8789760596357983 18.5143196063686446
  1.5337645976941570  2.8789760596357983 15.0000000000000000
  1.0994399839661386 -0.4349037995379049 20.8324518164493675
  1.1099854342428606  4.3431763021863743 26.6021040896103500
  1.1144502631388122  1.9404985147635669 25.0503434337703084
  1.0955268200838686  1.9674575173515432 22.3837211105565785
