Mg Br Pt Te
 1.0000000000000000
     3.9496770300697039   -0.0000000000000000    0.0000000000000000
    -1.9748385150348522    3.4205206447842382    0.0000000000000000
     0.0000000000000000    0.0000000000000000   39.1454283620243828
 Mg  Br  Pt  Te 
   1   2   1   2
Cartesian
  0.5825326793497194  0.8287028764707076 16.5070256484157589
  2.5573711943845696  1.9688764247321215 18.0140512968315178
  0.5825326793497192  3.1090499729935352 15.0000000000000000
  0.6364370491267226  0.7062184525649571 22.7582141324708722
  2.6112755641615744  1.8463920008263697 24.1454283620243828
  0.6364370491267225  2.9865655490877820 21.3709999038738445
