Mo Se S  Ir
 1.0000000000000000
     3.2995280041165280    0.0000000000000000    0.0000000000000000
    -1.6497640011216679    2.8577934337381770    0.0000000000000000
     0.0000000000000000    0.0000000000000000  -41.7674494773075793
 Mo  Se  S   Ir 
   1   2   2   2
Cartesian
 -0.4819742158516139  1.3037495009248175 -25.0984200005443725
  1.1677897865188487  2.2563473121708766 -23.4293905237811693
  1.1677897865188487  2.2563473121708766 -26.7674494773075793
  1.2908255212088318  0.9524751051126854 -19.6502937780201492
  1.2906765048086466  2.8578147389240129 -15.0000000000000000
  1.2906339065730315  0.9528257278100098 -16.2526683104745437
  1.2908683663045477  2.8574638490831434 -18.3976093190058236
