Ge Br Ge Br Ga Te Ga
 1.0000000000000000
     4.1978505896590814   -0.0506467540195987    0.0000000000000001
    -2.0551479801432753    3.6610975890616713    0.0000000000000001
    -0.0000000000000024    0.0000000000000000  -42.5332465923781982
 Ge  Br  Ge  Br  Ga  Te  Ga 
   1   1   1   1   1   2   1
Cartesian
  2.9625093570724963  3.5076793265879660 -18.0293486901658611
  0.8439239193409818  2.3186410956845251 -14.9999999999999964
  0.8484141030908348  2.3209200760641604 -17.3501246890710625
 -1.2353823382081814  3.5556657347598803 -20.3794909095427244
  0.4690821049819285  2.3907548010768629 -23.8062158177283649
  2.5534655726696367  1.1534822704453263 -27.5332465923781946
  0.4398863631882781 -0.0330821432678475 -22.5445928517122809
  0.4691218801864330  2.3907428963163637 -26.2716115451728669
