Hf Cl F  Pd
 1.0000000000000000
     3.3219029316021356   -0.0000000000000000    0.0000000000000000
    -1.6609514648601533    2.8785533113550850    0.0000000000000000
    -0.0000000000000012    0.0000000000000000   40.7676111956465306
 Hf  Cl  F   Pd 
   1   2   2   2
Cartesian
 -0.3613237797506594  1.3789505808637057 16.7299570918342546
  1.2996276863640468  2.3384683513154005 18.4599141836685092
  1.2996276863640468  2.3384683513154005 15.0000000000000000
 -0.6263510662342053  1.5909537383632757 21.8857574179383008
  2.6938673655741483  1.5949535496460059 25.7676111956465377
  1.0336359989710739  0.6341710878077792 24.6350031476274509
  1.0337981979879256  2.5520117915827458 23.0183148842007093
