F  Pd B  P 
 1.0000000000000000
     3.2551250237981746   -0.0000000000000000    0.0000000000000000
    -1.6275625109581728    2.8207219467852798    0.0000000000000000
     0.0000000000000011    0.0000000000000000  -37.8279619595509971
 F   Pd  B   P  
   2   2   1   1
Cartesian
 -0.5074309616503544  1.4888100254038368 -18.8818537777082334
  2.7460434246836503  1.4927294787708079 -14.9999999999999964
  1.1191865363221254  0.5512495466455658 -16.1326080480190832
  1.1193454747773790  2.4305600121618531 -17.7492963114458249
 -0.1093912930362771  2.0054911741979806 -22.8279619595509971
  1.5181712185491734  1.0652505252695543 -22.8279619595509971
