Pt Se Ru Br
 1.0000000000000000
     3.7643303348037760    0.0000000000000000    0.0000000000000000
    -1.8821651674018880    3.2600056981764505    0.0000000000000000
     0.0000000000000000    0.0000000000000000   38.7700835763587790
 Pt  Se  Ru  Br 
   1   2   1   2
Cartesian
  0.4584194982190224  0.7812291486611199 16.3098087278973871
  2.3405846656209111  1.8678977147199369 17.6196174497051317
  0.4584194982190223  2.9545662807787534 15.0000000000000000
  0.6135412502111053  0.4982796392837286 22.4532344224091744
  2.4957064176129928  1.5849482053425457 23.7700835763587790
  0.6135412502111054  2.6716167714013626 21.1363852684595734
