Hf S  Zn Br
 1.0000000000000000
     3.7251443571986975    0.0000000000000000    0.0000000000000000
    -1.8625721785993490    3.2260696460983249    0.0000000000000000
    -0.0000000000000000    0.0000000000000000   39.2378480245002095
 Hf  S   Zn  Br 
   1   2   1   2
Cartesian
  0.5739012015702114  0.7454400753787438 16.4481043019908526
  2.4364733801695597  1.8207966240781854 17.8962086039820463
  0.5739012015702112  2.8961531727776268 15.0000000000000000
  0.6057601036138318  0.7887663626448049 22.7552494191685923
  2.4683322822131792  1.8641229113442463 24.2378480245002095
  0.6057601036138320  2.9394794600436875 21.2726508138369894
