Ge O  Ga O 
 1.0000000000000000
     3.0718841937965928   -0.0000000000000000    0.0000000000000000
    -1.5359420968982964    2.6603297493117330    0.0000000000000000
     0.0000000000000000    0.0000000000000000  -38.7986789826860416
 Ge  O   Ga  O  
   1   1   2   2
Cartesian
  1.4406679366629715  1.6487193000353590 -22.8042371844029148
 -0.0952741602353254  2.5354958831392698 -23.7986789826860381
  1.7564023094980512  1.1108825266141351 -18.2624596435107449
  1.7564023094980512  1.1108825266141351 -15.7491739274520288
  0.2204602125997549  1.9976591097180458 -19.0116335709627968
  0.2204602125997549  1.9976591097180458 -15.0000000000000000
