Br Cu I  Pt
 1.0000000000000000
     3.9576765237318310    0.0000237985287992    0.0000000000000000
    -1.9788176420330610    3.4282951951542859    0.0000000000000000
    -0.0000000000000002   -0.0000000000000000   40.9380561570292869
 Br  Cu  I   Pt 
   2   2   2   2
Cartesian
  1.3651095701667320  0.7993449503447123 15.0000000000000000
  1.3660430007117219  3.0839321295540367 18.6331282326220524
  1.3647616627808870  0.7995730003565444 17.4857902901367517
  1.3663887989487165  3.0837049073466973 16.1476785051133049
 -0.8178837652357247  1.4175956465831874 21.5415691795953990
  3.1396390067799800  1.4177902908634616 25.9380561570292869
  1.1607206894206599  0.2748563228237597 24.4491644630695184
  1.1607677777709400  2.5603592308881344 23.0296532985894018
