Ca Cl Br Cd
 1.0000000000000000
     4.0250465018810537    0.0014024937248978    0.0000000000000000
    -2.0112986454386954    3.4916103423811489    0.0000000000000000
    -0.0000000000000032   -0.0000000000000000  -41.7769643888944344
 Ca  Cl  Br  Cd 
   1   2   2   2
Cartesian
 -0.4618435493468641  1.5585778746196135 -25.1608840756016576
  1.5510879034276071  2.7233829845632616 -23.5448037623088915
  1.5510879034276062  2.7233829845632616 -26.7769643888944238
  1.2931869039050374 -0.0999047680183998 -20.7228492099078032
  1.3062576553400129  4.5324662883271909 -15.0000000000000000
  1.3060624829286682  2.2048878504767040 -16.5217900061855083
  1.2929763155669869  2.2280017690201874 -19.2013233282757056
