Zr Te Zr S 
 1.0000000000000000
     3.7154768583798177   -0.0000000000000000    0.0000000000000000
    -1.8577384291899088    3.2176973465301186    0.0000000000000000
     0.0000000000000000    0.0000000000000000   42.7000828149804477
 Zr  Te  Zr  S  
   2   2   1   2
Cartesian
  2.1107261220053823  1.3823597400982752 23.2029981978193760
  2.1107261220053823  1.3823597400982752 25.8818892127622036
  0.2529876928154734  2.4549255222749817 21.3848047610695531
  0.2529876928154734  2.4549255222749817 27.7000828149804477
  0.1835278926708302  0.6078042874365361 16.4458824427441286
  2.0412663218607383  1.6803700696132422 17.8917648854881897
  0.1835278926708300  2.7529358517899483 15.0000000000000000
