W  Se Zr O 
 1.0000000000000000
     3.2939115154795608    0.0000000000000000    0.0000000000000000
    -1.6469557577397804    2.8526110502233988    0.0000000000000000
     0.0000000000000000    0.0000000000000000   39.2230541315726668
 W   Se  Zr  O  
   1   2   1   2
Cartesian
 -0.7280556129819068  1.3745701004853230 16.6792764021964075
  0.9189001447578735  2.3254404505597890 18.3585528043928186
  0.9189001447578735  2.3254404505597890 15.0000000000000000
  0.4216446979788523  0.8858828026843276 23.2617221591410868
  2.0686004557186326  1.8367531527587939 24.2230541315726668
  0.4216446979788523  2.7876235028332599 22.3003901867095102
