Se Zn Pt Te
 1.0000000000000000
     4.0455673852215401    0.0000000000000000    0.0000000000000000
    -2.0227836914468282    3.5037274035215829    0.0000000000000000
     0.0000000000000000    0.0000000000000000   40.1271385450660105
 Se  Zn  Pt  Te 
   2   2   1   2
Cartesian
  1.2362250405989985  0.7559985084881949 15.0000000000000018
  1.2363295638096430  3.0916843721698037 18.4133035906909868
  1.2361252155195821  0.7560529940544474 17.6556971816099235
  1.2364293597030720  3.0916298846346320 15.7579816020882415
  0.8146368061943687  0.2001102230434129 23.7399243155125035
  2.8374204991931191  1.3680193575506072 25.1271385450660176
  0.8146368069703300  2.5359284920578014 22.3527100869154793
