Ba I  Sn F 
 1.0000000000000000
     4.9417390086424602   -0.0000000000000000    0.0000000000000000
    -2.4708695043212301    4.2796715203550084    0.0000000000000000
     0.0000000000000013    0.0000000000000022   41.7650647289740462
 Ba  I   Sn  F  
   1   2   2   2
Cartesian
 -0.2009593764776710  1.7235147714147083 17.0447426683638170
  2.2699101278435596  3.1500719448663781 19.0894853367277690
  2.2699101278435596  3.1500719448663776 15.0000000000000000
  1.4744108166787455  0.8931113137730120 24.2526117803350445
  1.4744108199949710  3.7462256606763504 24.8077581329222667
  1.4744108166787453  0.8931113137730119 22.2953052003393992
  1.4744108199949710  3.7462256606763513 26.7650647289740533
