Sr Cl S  Hf
 1.0000000000000000
     4.1861721749161687    0.0000000000000000    0.0000000000000000
    -2.0930860862733871    3.6258640778843265    0.0000000000000000
    -0.0000000000000000    0.0000000000000000   39.9912983367179322
 Sr  Cl  S   Hf 
   1   2   2   2
Cartesian
 -0.5008597551823909  1.6887916864256649 16.6559757380194853
  1.5922263326705925  2.8974130457204406 18.3119514760389670
  1.5922263326705925  2.8974130457204406 15.0000000000000000
  1.1646476446757021  0.7602353820795771 21.6658116901355591
  1.1649748107164917  3.1769581639020634 24.9912983367179322
  1.1647758183757935  0.7601098064521717 24.2703928254338450
  1.1648466269849280  3.1770837447754010 22.3868080355796124
