Ni Se Zr S 
 1.0000000000000000
     3.6120097416974115    0.0000000000000000    0.0000000000000000
    -1.8060048708487058    3.1280921950268263    0.0000000000000000
    -0.0000000000000000    0.0000000000000000   38.8218718154695566
 Ni  Se  Zr  S  
   1   2   1   2
Cartesian
  0.5677723921952488  0.7189347193876801 16.2453409434781548
  2.3737772630439542  1.7616321177299552 17.4906818874949650
  0.5677723921952487  2.8043295160722304 14.9999999999999982
  0.5829901297639140  0.6560555440562073 22.3759893727254919
  2.3889950006126193  1.6987529423984824 23.8218718154695566
  0.5829901297639138  2.7414503407407582 20.9301069299813669
