Pb Te Se Cd
 1.0000000000000000
     4.3882718476639813   -0.0000000000000000    0.0000000000000000
    -2.1941359225602795    3.8015779773690870    0.0000000000000000
     0.0000000000000000    0.0000000000000000   39.0806819066602671
 Pb  Te  Se  Cd 
   1   1   2   2
Cartesian
  2.5271371522298978  1.7203241902231030 16.6845068820464775
  0.3330012288218107  2.9875168493461324 15.0000000000000018
  1.8441663082843807  0.7004816604827953 20.4920902904040148
  1.8445182415556691  3.2339362146727293 24.0806819066602600
  1.8437729429686196  0.7006843273775401 23.3824073937885260
  1.8449135301925930  3.2337329661952205 21.1901531277037307
