In Te Pb Cl
 1.0000000000000000
     4.3811627649620188    0.0000000000000000    0.0000000000000000
    -2.1905813824810094    3.7941982525715794    0.0000000000000000
    -0.0000000000000000    0.0000000000000000   41.7726674693884519
 In  Te  Pb  Cl 
   2   2   1   2
Cartesian
  2.4783953600196353  1.6366823908382071 22.5795253802821811
  2.4783953600196353  1.6366823908382071 25.3917131312004685
  0.2878139775386261  2.9014151416953999 21.1985710420799265
  0.2878139775386260  2.9014151416953999 26.7726674693884519
  0.2557414543052742  0.6560124128522266 16.4887320582197603
  2.4463228367862828  1.9207451637094191 17.9774641164395668
  0.2557414543052742  3.1854779145666119 15.0000000000000000
