I  Pt Te
 1.0000000000000000
     3.9892630178946984    0.0000237985287992    0.0000000000000000
    -1.9946108902434023    3.4548359192133411    0.0000000000000000
    -0.0000000000000002   -0.0000000000000000   40.2602297102679074
 I   Pt  Te 
   2   3   2
Cartesian
 -0.7954579960818005  1.9731435487361244 15.0000000000000000
  3.1936500429852739  1.9733395156500952 19.3964869774338879
  1.1989378948558180  0.8215574548342024 17.9075952834741230
  1.1989852485583989  3.1247539067799104 16.4880841189940028
  0.7455010163743538  0.3473101483265558 23.8730154807144004
  2.7401393982230182  1.4989379870835355 25.2602297102679074
  0.7455147621769851  2.6505420273117162 22.4858012521173691
