Zr Te Pt Te
 1.0000000000000000
     3.9691714083845717    0.0000000000000000    0.0000000000000000
    -1.9845857041922859    3.4374032716358975    0.0000000000000000
     0.0000000000000000    0.0000000000000000   40.3115679283737052
 Zr  Te  Pt  Te 
   1   2   1   2
Cartesian
 -0.5032291011686909  1.3010324974381839 23.4500033662993133
  1.4813566030235954  2.4468335879834830 25.3115679283737052
  1.4813566030235954  2.4468335879834830 21.5884388042251061
  0.6921035381739871  1.1648727339251552 16.3872142285970313
  2.6766892423662725  2.3106738244704541 17.7744284581505383
  0.6921035381739871  3.4564749150157530 15.0000000000000018
