Tl S  Tl S  Zr
 1.0000000000000000
     4.1281496683406740    0.0000000000000000    0.0000000000000000
    -2.0640748329721186    3.5755842174481463    0.0000000000000000
    -0.0000000000000000    0.0000000000000000   42.5269840618709551
 Tl  S   Tl  S   Zr 
   1   2   1   2   2
Cartesian
  0.7411039951109446  3.1825950302978820 19.0808900263254024
  2.8050304787476339  1.9902628889764378 15.0000000000000000
  0.7407726366070631  0.7985670296628875 20.2777474121569696
  0.7406242823986990  3.1830682371146319 16.1968552813114499
  1.2265644512397371  0.1729682133094883 24.1991223457593350
  1.2268450767241452  2.5562422940451719 27.5269840618709551
  1.2266335382408806  0.1728870102639559 26.8229309485010532
  1.2267759789055062  2.5563235000060009 24.9032134654618034
