Hf I  Hf S 
 1.0000000000000000
     3.7126683706640784   -0.0000000000000000    0.0000000000000000
    -1.8563341853320392    3.2152651248220723    0.0000000000000000
    -0.0000000000000000    0.0000000000000000   40.5744132610960975
 Hf  I   Hf  S  
   1   2   1   2
Cartesian
 -0.4063137212771794  1.2462293516049805 16.9476853944779791
  1.4500204640548597  2.3179843932123383 18.8953707810581477
  1.4500204640548597  2.3179843932123383 15.0000000000000000
  0.3893509153958760  0.9225237654424616 24.1263089591049038
  2.2456851007279148  1.9942788070498192 25.5744132610960975
  0.3893509153958760  3.0660338486571765 22.6782046571140441
