Sn S  Hf S 
 1.0000000000000000
     3.7021115551206187   -0.0000000000000000    0.0000000000000000
    -1.8510557775603094    3.2061226543783694    0.0000000000000000
    -0.0000000000000000    0.0000000000000000   37.9019820473356290
 Sn  S   Hf  S  
   1   1   1   2
Cartesian
  2.1115355427924234  1.6631429113796128 16.4598471617338120
  0.2604797652321140  2.7318504628390690 15.0000000000000000
  0.4647783959571641  0.3686476746742554 21.4538777453444354
  2.3158341735174739  1.4373552261337117 22.9019820473356290
  0.4647783959571641  2.5060627775931681 20.0057734433535792
