Ga O  Hf O 
 1.0000000000000000
     3.1936654937491040    0.0000000000000000    0.0000000000000000
    -1.5968327468745520    2.7657954487764962    0.0000000000000000
     0.0000000000000000    0.0000000000000000   39.9107661965641327
 Ga  O   Hf  O  
   2   2   1   2
Cartesian
  1.7310854617866984  1.2597377142196218 15.7491739274520537
  1.7310854617866984  1.2597377142196218 18.2624596435107698
  0.1342527149121467  2.1816695304784539 15.0000000000000000
  0.1342527149121467  2.1816695304784539 19.0116335709628004
 -0.2436335554007226  0.8022313926089191 23.9383366048306740
  1.3531991914738297  1.7241632088677510 24.9107661965641327
 -0.2436335554007226  2.6460950251265833 22.9659070130972154
