Ti Cl W  Se
 1.0000000000000000
     3.2990172083753881    0.0000000000000000    0.0000000000000000
    -1.6495086041876941    2.8570327099751069    0.0000000000000000
     0.0000000000000000    0.0000000000000000   40.5270902249965701
 Ti  Cl  W   Se 
   1   2   1   2
Cartesian
  0.2421689183411853  1.3772497782348185 16.5858594364141609
  1.8916775225288789  2.3295940148931873 18.1717191271673713
  1.8916775225288789  2.3295940148931873 15.0000000000000018
  0.3793967774717204  1.3273002792058408 23.8478138228001590
  2.0289053816594143  2.2796445158642098 25.5270902249965701
  2.0289053816594143  2.2796445158642098 22.1685374206037515
