Cr S  Pd O 
 1.0000000000000000
     3.0706938955040015    0.0000000000000000    0.0000000000000000
    -1.5353469477520008    2.6592989207522635    0.0000000000000000
     0.0000000000000000    0.0000000000000000   38.7605173724723855
 Cr  S   Pd  O  
   1   2   1   2
Cartesian
 -0.3037930009773406  1.0039488222838633 16.4740845698072604
  1.2315539467746599  1.8903817958679510 17.9481691396145280
  1.2315539467746599  1.8903817958679510 15.0000000000000000
  0.4338243780781974  0.8331881163200519 22.7814972536402180
  1.9691713258301979  1.7196210899041398 23.7605173724723855
  0.4338243780781974  2.6060540634882274 21.8024771348080471
