In O  Pd S 
 1.0000000000000000
     3.4968377545763163    0.0000000000000000    0.0000000000000000
    -1.7484188772881581    3.0283503283756241    0.0000000000000000
     0.0000000000000000    0.0000000000000000   40.9104137032133792
 In  O   Pd  S  
   2   2   1   2
Cartesian
  1.8584421055012732  1.4488809303554195 15.7906696250192056
  1.8584421055012732  1.4488809303554195 18.6409348226404816
  0.1100232282131150  2.4583310398139604 15.0000000000000000
  0.1100232282131150  2.4583310398139604 19.4316044446728213
 -0.1028266714399381  0.6608828559781448 24.6653418698088487
  1.6455922058482197  1.6703329654366861 25.9104137032133792
 -0.1028266714399381  2.6797830748952278 23.4202700364043181
