Mg Br Pt Se
 1.0000000000000000
     3.8158968053031357   -0.0000000000000000    0.0000000000000000
    -1.9079484026515681    3.3046635716123980    0.0000000000000000
     0.0000000000000000    0.0000000000000000   38.9075613465273307
 Mg  Br  Pt  Se 
   1   2   1   2
Cartesian
  0.7814977914301782  1.1405473161636985 22.4005356981115717
  2.6894461940817442  2.2421018400344987 23.9075613465273307
  0.7814977914301779  3.3436563639052990 20.8935100496958093
  0.7800452156239415  0.9601495222892559 16.3098087278973836
  2.6879936182755095  2.0617040461600551 17.6196174497051317
  0.7800452156239412  3.1632585700308544 15.0000000000000000
