W  Se Ir
 1.0000000000000000
     3.3635644043687227   -0.0000000000000000    0.0000000000000000
    -1.6817822012109747    2.9178462067820590    0.0000000000000000
    -0.0000000000000000    0.0000000000000000   41.7091764620530583
 W   Se  Ir 
   1   4   2
Cartesian
 -0.3361073052140179  1.3747459134496594 16.6792764021964111
  1.3456748972948056  2.3473613157103457 18.3585528043928186
  1.3456748972948056  2.3473613157103457 15.0000000000000000
  1.1131080367252080  0.7347599461309282 21.9344327254061433
  1.1128568236608392  2.6791828017107284 26.7091764620530583
  1.1127888152185779  0.7370700512674632 25.3246862562764044
  1.1131761461518066  2.6768707435814281 23.3189538078595611
