Se Cd Se Zr
 1.0000000000000000
     4.3890701772550980   -0.0000000000000000    0.0000000000000000
    -2.1945350861204425    3.8028762536782117    0.0000000000000000
    -0.0000000000000000    0.0000000000000000   40.5264520883152031
 Se  Cd  Se  Zr 
   2   2   2   2
Cartesian
  1.4886901659806111  0.7703885659568539 15.0000000000000000
  1.4890421640999574  3.3047083198211151 18.5885916162562417
  1.4882967291025369  0.7705913020643385 17.8903171033845112
  1.4894375246490912  3.3045050019322502 15.6980628372997124
  1.0606734509450242  0.8197175168629982 21.8670249873568778
  1.0609579653956089  3.3544465109513371 25.5264520883152031
  1.0606712849550217  0.8196798814574764 24.6409210117668778
  1.0609601447125745  3.3544841232892311 22.7527757430426618
