Ge Se Hf S 
 1.0000000000000000
     3.6591987838183231    0.0000000000000000    0.0000000000000000
    -1.8295993919091615    3.1689591042837897    0.0000000000000000
    -0.0000000000000000    0.0000000000000000   37.9390633396471273
 Ge  Se  Hf  S  
   1   1   1   2
Cartesian
  2.0805498215746931  1.1287698185085764 16.4473597337136113
  0.2509504296655316  2.1850895199365068 15.0000000000000000
  0.7549002476054987  0.1630979973721112 21.4909590376559336
  2.5844996395146600  1.2194176988000409 22.9390633396471273
  0.7549002476054987  2.2757374002279711 20.0428547356650810
