Hf Se Mg Br
 1.0000000000000000
     3.8280666606252587   -0.0000000000000000    0.0000000000000000
    -1.9140333303126296    3.3152029754817374    0.0000000000000000
    -0.0000000000000000    0.0000000000000000  -39.4333821185953468
 Hf  Se  Mg  Br 
   1   2   1   2
Cartesian
  0.7984486620211506  1.0823300171334198 -16.5758890207795062
  2.7124819923337800  2.1873976756273321 -15.0000000000000018
  0.7984486620211504  3.2924653341212444 -18.1517780415566818
  0.8290089006011642  0.9440075729821253 -22.9263564701795843
  2.7430422309137916  2.0490752314760390 -21.4193308217638254
  0.8290089006011639  3.1541428899699526 -24.4333821185953468
