S  Ir Pb O 
 1.0000000000000000
     3.3407605935739877    0.0000000000000000    0.0000000000000000
    -1.6703802958503977    2.8935019036721519    0.0000000000000000
    -0.0000000000000000    0.0000000000000000   40.6671663650305106
 S   Ir  Pb  O  
   2   2   1   2
Cartesian
  1.0624713868723585  0.7575603049363424 14.9999999999999964
  1.0623205082792202  2.6867073848089369 19.6502937780201492
  1.0622773777220680  0.7579153087061048 18.3976254675456055
  1.0625147673745015  2.6863521105576389 16.2526844590143256
  0.6165751465496178 -0.0109559294068370 24.6085472088858310
  2.2869554436488100  0.9535447051505468 25.6671663650305106
  0.6165751471740152  1.9180453397079305 23.5499280527411514
