Zr I  Mg Br
 1.0000000000000000
     3.8562974469647417   -0.0000000000000000    0.0000000000000000
    -1.9281487234823711    3.3396515536205409    0.0000000000000000
     0.0000000000000000    0.0000000000000000   40.7548221557763881
 Zr  I   Mg  Br 
   1   2   1   2
Cartesian
 -0.6452174282080625  1.4349623412180688 16.9391452359630961
  1.2829312952743082  2.5481795257582487 18.8782904725522300
  1.2829312952743082  2.5481795257582487 15.0000000000000000
  0.4660588353967023  0.9632307192488078 24.2477965073606327
  2.3942075588790712  2.0764479037889894 25.7548221557763952
  0.4660588353967021  3.1896650883291704 22.7407708589448703
