Sn O  B  P 
 1.0000000000000000
     3.2792211547109575   -0.0000000000000000    0.0000000000000000
    -1.6396105773554788    2.8398888246070300    0.0000000000000000
    -0.0000000000000000    0.0000000000000000   35.0092420824371118
 Sn  O   B   P  
   1   1   1   1
Cartesian
  1.8430715532674564  1.1542960735206365 16.0113936186181398
  0.2034609759119775  2.1009256817229796 15.0000000000000000
  0.1547159011363702  2.2163540759625402 20.0092420824371118
  1.7943264784918496  1.2697244677601967 20.0092420824371118
