Pb Te Pb Br
 1.0000000000000000
     4.4054919739744145    0.0000000000000000    0.0000000000000000
    -2.2027459869872077    3.8152679656302864    0.0000000000000000
     0.0000000000000000    0.0000000000000000   38.3931566549029455
 Pb  Te  Pb  Br 
   1   1   1   2
Cartesian
  2.3616383621018664  1.6003964245892928 16.6845068820464775
  0.1588923751146588  2.8721524131327207 15.0000000000000000
  0.7344219764799974  0.4440911873109951 21.7288849872633065
  2.9371679634672043  1.7158471758544234 23.3931566549029455
  0.7344219764799971  2.9876031643978513 20.0646133196236889
