Hf Te In S 
 1.0000000000000000
     3.9119325514475460    0.0000000000000000    0.0000000000000000
    -1.9559662757237730    3.3878329674448500    0.0000000000000000
    -0.0000000000000000    0.0000000000000000   42.6760158896883226
 Hf  Te  In  S  
   1   2   2   2
Cartesian
 -0.4411169710345578  1.3820565661532318 16.8494380278571043
  1.5148493046892151  2.5113342219681818 18.6988761198817635
  1.5148493046892151  2.5113342219681818 14.9999999999999964
  2.1904095721917116  1.5097876335309894 23.6793356505071699
  2.1904095721917116  1.5097876335309894 26.4982931587605748
  0.2344432964679386  2.6390652893459396 22.5016129195725156
  0.2344432964679386  2.6390652893459396 27.6760158896883297
