Ge S  Pt S 
 1.0000000000000000
     3.5309864621514020   -0.0000000000000000    0.0000000000000000
    -1.7654932310757010    3.0579239766420536    0.0000000000000000
     0.0000000000000000    0.0000000000000000   37.4312505843720942
 Ge  S   Pt  S  
   1   1   1   2
Cartesian
  2.0188436071403002  1.0654456703086141 16.3610326690029453
  0.2533503760645995  2.0847536625226315 15.0000000000000000
  0.6648202037849861  0.1066262334484137 21.1992232148716262
  2.4303134348606870  1.1259342256624314 22.4312505843720942
  0.6648202037849860  2.1452422178764494 19.9671958453711582
