Ga Se Sn Se
 1.0000000000000000
     3.8446383964958062   -0.0000000000000000    0.0000000000000000
    -1.9223191982479031    3.3295545197304373    0.0000000000000000
     0.0000000000000000    0.0000000000000000   41.9959167200276582
 Ga  Se  Sn  Se 
   2   2   1   2
Cartesian
  2.1138380965919579  1.4897657008640532 16.1770728543176290
  2.1138380965919579  1.4897657008640532 18.6526280641098126
  0.1915188983440553  2.5996172074408657 15.0000000000000000
  0.1915188983440553  2.5996172074408657 19.8297009184262052
 -0.0321405495596849  0.7147979590044028 25.4029857004534527
  1.8901786486882179  1.8246494655812153 26.9959167200276582
 -0.0321405495596849  2.9345009721580277 23.8100546808791869
