Ge I  Pb Cl
 1.0000000000000000
     4.3464492239943873    0.0000000000000000    0.0000000000000000
    -2.1732246119971945    3.7641354442382990    0.0000000000000000
     0.0000000000000000    0.0000000000000000   39.7449091184138155
 Ge  I   Pb  Cl 
   1   2   1   2
Cartesian
  0.6147563007161838  0.9107087895203613 16.7447758939812488
  2.7879809127133774  2.1654206042664605 18.4895517879624940
  0.6147563007161834  3.4201324190125599 15.0000000000000000
  0.7903254831257653  0.7810470927065505 23.2561770601940090
  2.9635500951229581  2.0357589074526499 24.7449091184138155
  0.7903254831257647  3.2904707221987493 21.7674450019742487
