Zr I  Ge Te
 1.0000000000000000
     3.8862576711765753   -0.0000000000000000    0.0000000000000000
    -1.9431288355882876    3.3655978688910615    0.0000000000000000
    -0.0000000000000000    0.0000000000000000  -39.3728441058892997
 Zr  I   Ge  Te 
   1   2   1   1
Cartesian
 -0.1046391019555209  1.3559759616498639 -16.9391452365891269
  1.8384897336327668  2.4778419179468840 -14.9999999999999964
  1.8384897336327668  2.4778419179468840 -18.8782904725522229
  2.2057788589966898  1.8551087397432944 -22.8130228719798680
  0.2626500234084028  2.9769746960403145 -24.3728441058892962
