Hf Br Zr Br
 1.0000000000000000
     3.5312394669869072    0.0000000000000000    0.0000000000000000
    -1.7656197334934536    3.0581430852568818    0.0000000000000000
     0.0000000000000000    0.0000000000000000   41.3464987678941327
 Hf  Br  Zr  Br 
   1   2   1   2
Cartesian
  0.1652504645674529  1.2270112714767509 16.8486980501143790
  1.9308701980609067  2.2463922998957115 18.6973960898101055
  1.9308701980609067  2.2463922998957115 15.0000000000000000
  0.2337960053024456  1.3775646557793326 24.5203063454076897
  1.9994157387958988  2.3969456841982932 26.3464987678941327
  1.9994157387958988  2.3969456841982932 22.6941139148668825
