Pb Se Pt Te
 1.0000000000000000
     4.0468015747442063    0.0000000000000000    0.0000000000000000
    -2.0234007873721032    3.5046329678033450    0.0000000000000000
    -0.0000000000000000    0.0000000000000000   37.8601323283223010
 Pb  Se  Pt  Te 
   1   1   1   2
Cartesian
  2.2079748739402638  1.4179609289091033 16.5482420467417022
  0.1845740865681607  2.5861719181768845 15.0000000000000000
  0.7028570827453855  0.1883081497270411 21.4729180987687940
  2.7262578701174882  1.3565191389948223 22.8601323283223010
  0.7028570827453855  2.5247301282626040 20.0857038701717627
