W  Te Cd F 
 1.0000000000000000
     3.5310924245927340   -0.0000000000000000    0.0000000000000000
    -1.7655462122963648    3.0580157428081001    0.0000000000000000
     0.0000000000000002   -0.0000000000000000   39.4874375645060667
 W   Te  Cd  F  
   1   2   1   2
Cartesian
 -0.4284447115748060  1.2269360304006729 16.8119622132334641
  1.3371015007215616  2.2462746113367058 18.6239244264669281
  1.3371015007215616  2.2462746113367058 14.9999999999999964
  0.4210868140676276  0.9128053435141281 23.4702758824768907
  2.1866330263639937  1.9321439244501613 24.4874375645060667
  0.4210868140676262  2.9514825053861946 22.4531142004477431
