Sn Se Al Se
 1.0000000000000000
     3.8422653427251516   -0.0000000000000000    0.0000000000000000
    -1.9211326713625758    3.3274993948805038    0.0000000000000000
     0.0000000000000000    0.0000000000000000  -40.1219377346842379
 Sn  Se  Al  Se 
   1   1   2   2
Cartesian
  1.8003174799782027  1.8280651189282269 -23.5633170459564170
 -0.1208151913843730  2.9372315838883951 -25.1219377346842379
  2.1911817216116134  1.3534773243193430 -18.7553318157725037
  2.1911817216116134  1.3534773243193430 -16.1674793328363080
  0.2700490502490377  2.4626437892795110 -19.9228111486087727
  0.2700490502490377  2.4626437892795110 -15.0000000000000000
