W  Te Pt S 
 1.0000000000000000
     3.5618541831827928    0.0000000000000000    0.0000000000000000
    -1.7809270915913964    3.0846562072121699    0.0000000000000000
     0.0000000000000000    0.0000000000000000  -39.9621111104033773
 W   Te  Pt  S  
   1   2   1   2
Cartesian
 -0.3287999601106592  1.1137686216252967 -16.8119622132334641
  1.4521271314807374  2.1419873573626869 -15.0000000000000000
  1.4521271314807374  2.1419873573626869 -18.6239244264669317
  0.6663280003459711  1.0578251756539223 -23.7300837409029093
  2.4472550919373672  2.0860439113913123 -22.4980563714024413
  0.6663280003459708  3.1142626471287023 -24.9621111104033773
