Al Te Al Se Ti
 1.0000000000000000
     4.0869976653271820   -0.0000000000000000    0.0000000000000000
    -2.0434988343463276    3.5402868944937698    0.0000000000000000
     0.0000000000000000    0.0000000000000000   42.4564864184554196
 Al  Te  Al  Se  Ti 
   1   2   1   2   2
Cartesian
  0.7077692574308870  3.5714357571197146 26.1878427104131291
  2.7513118653036956  2.3913440761215621 22.3564405076684167
  0.7077443186421923  1.2112118989180352 27.4564864184554196
  0.7077881005984946  3.5714071110412346 23.6250524769036332
  1.5357123005335960  0.3545925142716466 15.0000000000000000
  1.5358216751704228  2.7141865386025672 18.5593314578672803
  1.5355156022181879  0.3546611810407635 17.6333181360686524
  1.5360184561773720  2.7141178989188632 15.9260846234147593
