Mg Cl Zn Cl
 1.0000000000000000
     3.6359003550624189    0.0000000000000000    0.0000000000000000
    -1.8179501775312099    3.1487820731129146    0.0000000000000000
     0.0000000000000000    0.0000000000000000   38.9072081676627093
 Mg  Cl  Zn  Cl 
   1   2   1   2
Cartesian
  0.5271718895773287  0.6418230590570229 16.3729058647441299
  2.3451220671085382  1.6914170834279945 17.7458117294882669
  0.5271718895773292  2.7410111077989661 15.0000000000000000
  0.6667258261449067  0.7913802628729578 22.5397411790805933
  2.4846760036761157  1.8409742872439290 23.9072081676627093
  0.6667258261449065  2.8905683116149001 21.1722741904984559
