Hg F  Zr Se
 1.0000000000000000
     3.7269874015290210   -0.0000000000000000    0.0000000000000000
    -1.8634937007645085    3.2276657693086843    0.0000000000000000
     0.0000000000000002    0.0000000000000000   38.6984439807794018
 Hg  F   Zr  Se 
   1   2   1   2
Cartesian
  0.4980984141995264  0.7210339362284456 16.0286721523601869
  2.3615921149640271  1.7969225259980068 17.0573443047204023
  0.4980984141995248  2.8728111157675680 14.9999999999999982
  0.6679268015142694  0.6566171748936054 22.1178386756473770
  2.5314205022787806  1.7325057646631665 23.6984439807794018
  0.6679268015142708  2.8083943544327279 20.5372333705152244
