Ge S  Cd F 
 1.0000000000000000
     3.5002247035613427   -0.0000000000000000    0.0000000000000000
    -1.7501123517806692    3.0312835122379838    0.0000000000000000
    -0.0000000000000002    0.0000000000000000  -37.0028645539917207
 Ge  S   Cd  F  
   1   1   1   2
Cartesian
  2.1766851176771986  1.4880748326652962 -20.6418318849887754
  0.4265727658965284  2.4985026700779569 -22.0028645539917207
  0.6175372014643505  0.2128340628495631 -16.0171616820291760
  2.3676495532450215  1.2232619002622243 -14.9999999999999964
  0.6175372014643490  2.2336897376748857 -17.0343233640583236
