Sn Te Ge F 
 1.0000000000000000
     4.2115533365050499   -0.0000000000000000    0.0000000000000000
    -2.1057766682525250    3.6473121788071885    0.0000000000000000
     0.0000000000000012    0.0000000000000021   39.6658037077880437
 Sn  Te  Ge  F  
   1   1   2   2
Cartesian
  2.4220574941848718  1.4284945919512251 16.6861605505646438
  0.3162808259323466  2.6442653182202873 15.0000000000000000
  1.4234172160035619  0.8210942125167682 22.2918170857227622
  1.4234172196820980  3.2526356650548931 22.8848969710002876
  1.4234172160035619  0.8210942125167676 20.5109103801440540
  1.4234172196820980  3.2526356650548931 24.6658037077880437
