Pb Br I  Cu
 1.0000000000000000
     4.2424333667632546    0.0000000000000000    0.0000000000000000
    -2.1212166821886460    3.6740550674134171    0.0000000000000000
     0.0000000000000000    0.0000000000000000   41.0897374971102352
 Pb  Br  I   Cu 
   1   2   2   2
Cartesian
 -0.3923954372699794  1.6721044712337227 16.8414801415537809
  1.7288212465093085  2.8967894937048619 18.6829602831084465
  1.7288212465093085  2.8967894937048619 14.9999999999999982
  1.5324166413488312  1.0660334702967782 22.2339345664702357
  1.5324166209319856  3.5154035274859066 26.0897374971102352
  1.5324166413488314  1.0660334702967784 24.8552335982302353
  1.5324166209319854  3.5154035274859061 23.4710337209502349
