S  Cd S  Zr
 1.0000000000000000
     4.2554110031610186   -0.0000000000000000    0.0000000000000000
    -2.1277054991497506    3.6872615304192609    0.0000000000000000
    -0.0000000000000000    0.0000000000000000   40.1291569203320151
 S   Cd  S   Zr 
   2   2   2   2
Cartesian
  1.2063987432916139  1.0302312192885970 15.0000000000000000
  1.2067138944867901  3.4871891413852225 18.2374084038473541
  1.2060316381319922  1.0303007419992287 17.8133498455626693
  1.2070812231384838  3.4871196409078800 15.4239508926595690
  1.5076420978286824  1.0105762300065930 21.8012952042203878
  1.5079313751465742  3.4682878373739996 25.1291569203320080
  1.5077133146227304  1.0104924907215600 24.4251038069621060
  1.5078601472015523  3.4683715796653836 22.5053863239228562
