Ba Cl I  Cd
 1.0000000000000000
     4.4671746897459652    0.0008383076656587    0.0000000000000000
    -2.2328553651560341    3.8759418368166703    0.0000000000000000
     0.0000000000000032    0.0000000000000000   41.5368551979914358
 Ba  Cl  I   Cd 
   1   2   2   2
Cartesian
 -0.3781700090833732  1.7103511495488515 16.6919307837616273
  1.8556613290285924  3.0028906335981809 18.3838615675232617
  1.8556613290285919  3.0028906335981809 14.9999999999999982
  1.2327328207078383 -0.4437208706783978 20.6266475431037435
  1.2445260599358698  4.6920969853313386 26.5368551979914429
  1.2498377325021923  2.1105960898591203 24.9252895993684831
  1.2305694577873350  2.1355426956081232 22.2382653063026794
