W  S  Pd O 
 1.0000000000000000
     3.1398850992462712    0.0000000000000000    0.0000000000000000
    -1.5699425496231356    2.7192202609114942    0.0000000000000000
     0.0000000000000000    0.0000000000000000   39.0423265516871467
 W   S   Pd  O  
   1   2   1   2
Cartesian
 -0.5306144139987740  1.1691769774809657 16.5727974379861820
  1.0393281356243613  2.0755837311181304 18.1455948759723711
  1.0393281356243613  2.0755837311181304 15.0000000000000000
  0.5736029451531146  0.7852016661854063 23.0633064328549864
  2.1435454947762502  1.6916084198225709 24.0423265516871538
  0.5736029451531146  2.5980151734597356 22.0842863140228189
