Br Cd Se Ti
 1.0000000000000000
     4.0729634510403683    0.0014024937248978    0.0000000000000000
    -2.0352571188640116    3.5340365557655566    0.0000000000000000
     0.0000000000000033    0.0000000000000000   42.1410628426661660
 Br  Cd  Se  Ti 
   2   2   2   2
Cartesian
  1.6554387746376209 -0.0902851041547236 21.4182136327583663
  1.6686457932238541  4.5983620858282963 27.1410628426661660
  1.6684580129854685  2.2425071479776992 25.6192728364806612
  1.6552159622987064  2.2659019205024586 22.9397395143904603
  1.4529115860098787  1.1867198769012286 15.0000000000000018
  1.4538367840352089  3.5426154803080223 18.5593314578672803
  1.4527155868829873  1.1867883685421807 17.6333181360686559
  1.4540328655790582  3.5425470157384056 15.9260846234147611
