Al S  Al Cl Pd
 1.0000000000000000
     3.6332535428474682   -0.0000057074165551    0.0000000000000000
    -1.8166317149284352    3.1464599193238851    0.0000000000000000
    -0.0000000000000001    0.0000000000000000   42.5016245101269021
 Al  S   Al  Cl  Pd 
   1   2   1   2   2
Cartesian
  0.6445330616565255  2.7566455026413865 18.6583526669593560
  2.4611974514229771  1.7078926386398074 15.0000000000000000
  0.6444428959187827  0.6591428645932370 19.7235705521294094
  0.6444755824337314  2.7566933523019563 16.0652186722868322
 -0.6748939286118019  1.3237001399453889 23.4413517815739922
  2.9584111228665124  1.3236068292502716 27.5016245101269021
  1.1415176042966384  0.2746656777007744 26.2234208153168424
  1.1415103028927354  2.3723287624466183 24.7175674726498258
