Zr Cl S  Ir
 1.0000000000000000
     3.3447109593187268    0.0000000000000000    0.0000000000000000
    -1.6723554787227672    2.8969230207613355    0.0000000000000000
    -0.0000000000000000    0.0000000000000000   41.7227934300624312
 Zr  Cl  S   Ir 
   1   2   2   2
Cartesian
 -0.4206550713318178  1.3395120765222042 16.7078992199188079
  1.2517004086397441  2.3051530834426490 18.4157984398376016
  1.2517004086397441  2.3051530834426490 15.0000000000000000
  1.0253593737721867  0.7008953302009338 22.0724996520422785
  1.0252083167681514  2.6323233271982494 26.7227934300624312
  1.0251651352109339  0.7012507537075767 25.4701251195878875
  1.0254028055699487  2.6319676328902681 23.3251841110566076
