Ti Br Sn O 
 1.0000000000000000
     3.4073311798503338   -0.0000000000000000    0.0000000000000000
    -1.7036655899251669    2.9508353608571927    0.0000000000000000
    -0.0000000000000000    0.0000000000000000   38.3482813526177608
 Ti  Br  Sn  O  
   1   2   1   1
Cartesian
 -0.1110380794874328  1.2250947282496165 21.6544278936375925
  1.5926275104377341  2.2087065152020138 23.3482813526177608
  1.5926275104377341  2.2087065152020138 19.9605744353097556
  1.9800795581150361  1.7094194925659483 16.0113936186181398
  0.2764139681898690  2.6930312795183458 15.0000000000000000
