Ti I  Sn S 
 1.0000000000000000
     3.7604826199872079   -0.0000000000000000    0.0000000000000000
    -1.8802413099936039    3.2566734793987848    0.0000000000000000
    -0.0000000000000000    0.0000000000000000   39.0277029900390957
 Ti  I   Sn  S  
   1   2   1   1
Cartesian
 -0.1022749644305079  1.3213556791220393 22.2133372051561793
  1.7779663455630956  2.4069135055883009 24.0277029900391028
  1.7779663455630956  2.4069135055883009 20.3989714238985620
  2.1401390380455494  1.8185270769948878 16.4598471617338120
  0.2598977280519451  2.9040849034611491 15.0000000000000036
