Hf Cl Sn O 
 1.0000000000000000
     3.3459990625149185   -0.0000000000000000    0.0000000000000000
    -1.6729995312574593    2.8977201891768352    0.0000000000000000
     0.0000000000000000    0.0000000000000000  -38.4247921342955010
 Hf  Cl  Sn  O  
   1   2   1   1
Cartesian
 -0.1120038937809066  1.2055956165671586 -16.7299570918342511
  1.5609956374765528  2.1715023462927703 -14.9999999999999982
  1.5609956374765528  2.1715023462927703 -18.4599141836685092
  1.9437214477085554  1.6944924087214890 -22.4133985156773647
  0.2707219164510957  2.6603991384471004 -23.4247921342955010
