Ba Cl I  Hg
 1.0000000000000000
     4.4945010652132105   -0.0000000000000011    0.0000000000000000
    -2.2472505313340663    3.9082509835006505    0.0000000000000000
     0.0000000000000034    0.0000000000000000   41.6129133361724115
 Ba  Cl  I   Hg 
   1   2   2   2
Cartesian
 -0.4643658839619458  1.6368665743238517 16.6919307837616309
  1.7828846490688395  2.9396169021574012 18.3838615675232617
  1.7828846490688390  2.9396169021574012 15.0000000000000000
  1.3636910414089984 -0.3033705041921554 20.6886815906757420
  1.3735327217100868  4.8718268679097116 26.6129133361724115
  1.3821935274077950  2.2700459497176269 24.9928010154148232
  1.3604649418542785  2.2945139142573865 22.3093398459285979
