Se Ti Pt Te
 1.0000000000000000
     4.0287597888701763    0.0000000000000000    0.0000000000000000
    -2.0143798932807471    3.4899372410473974    0.0000000000000000
     0.0000000000000000    0.0000000000000000   40.2488822266753346
 Se  Ti  Pt  Te 
   2   2   1   2
Cartesian
  1.1496411075082253  0.7504391761937073 15.0000000000000000
  1.1497489254806512  3.0764752587702544 18.5593314578672803
  1.1494472120552981  0.7505068663899837 17.6333181360686524
  1.1499429024468024  3.0764075952741843 15.9260846234147575
  0.8319760525200510 -0.0088927913037442 23.8616679971218275
  2.8463559473399189  1.1544196223787215 25.2488822266753346
  0.8319760532896118  2.3177320360611873 22.4744537685247963
