Zr Br Hg F 
 1.0000000000000000
     3.6107131416327958   -0.0000000000000000    0.0000000000000000
    -1.8053565708163959    3.1269693064323185    0.0000000000000000
    -0.0000000000000002   -0.0000000000000000  -39.5651070457214900
 Zr  Br  Hg  F  
   1   2   1   2
Cartesian
 -0.4232533147255250  1.1554104493539481 -16.8261924224864430
  1.3821032560908737  2.1977335514980543 -15.0000000000000000
  1.3821032560908737  2.1977335514980543 -18.6523848530272502
  0.6434356710165295  1.1006740654981835 -23.5364348933613066
  2.4487922418329182  2.1429971676422896 -22.5077627410010912
  0.6434356710165280  3.1853202697863958 -24.5651070457214935
