Ti Cl F  Pt
 1.0000000000000000
     3.3355245899155266    0.0000585085648160    0.0000000000000000
    -1.6677115636670252    2.8888040699113642    0.0000000000000000
    -0.0000000000000013   -0.0000000000000000   40.3943298611450743
 Ti  Cl  F   Pt 
   1   2   2   2
Cartesian
 -0.4822860883150934  1.4432430829093521 16.5858594364141609
  1.1854931170729153  2.4062167785896844 18.1717191271673713
  1.1854931170729153  2.4062167785896844 15.0000000000000000
 -0.6848364555133098  1.5423823115119437 21.6010242049164845
  2.6504654521646969  1.5430769611557209 25.3943298611450743
  0.9827587404620476  0.5798323484301913 24.2554408274920696
  0.9828920054303620  2.5055523288132204 22.7399495743685591
