Zr Cl In O 
 1.0000000000000000
     3.4251977554042861    0.0000000000000000    0.0000000000000000
    -1.7125988777021430    2.9663082691655496    0.0000000000000000
     0.0000000000000000    0.0000000000000000   41.7103774861760570
 Zr  Cl  In  O  
   1   2   2   2
Cartesian
 -0.5995200150740534  1.4346210561461901 16.7078992199188079
  1.1130788626280892  2.4233904792013732 18.4157984398376016
  1.1130788626280892  2.4233904792013732 15.0000000000000000
  1.7971579724476201  1.3174101695474461 23.0694426665224412
  1.7971579724476201  1.3174101695474461 25.9197078641437173
  0.0845590947454773  2.3061795926026294 22.2787730415032321
  0.0845590947454773  2.3061795926026294 26.7103774861760570
