Ge S  Pd S 
 1.0000000000000000
     3.5208677383073512   -0.0000000000000000    0.0000000000000000
    -1.7604338691536756    3.0491609047392267    0.0000000000000000
     0.0000000000000000    0.0000000000000000  -37.4578150688285518
 Ge  S   Pd  S  
   1   1   1   2
Cartesian
  2.1818906295059586  1.7583159875654126 -21.0967823998256137
  0.4214567603522831  2.7747029558118212 -22.4578150688285589
  0.5143276785460125  0.1818757278627667 -16.2450718334045376
  2.2747615476996881  1.1982626961091756 -15.0000000000000071
  0.5143276785460125  2.2146496643555844 -17.4901436668090682
