Ga S  Pt S 
 1.0000000000000000
     3.6094798360701672    0.0000000000000000    0.0000000000000000
    -1.8047399180350836    3.1259012324844555    0.0000000000000000
     0.0000000000000000    0.0000000000000000   41.1045198936080567
 Ga  S   Pt  S  
   2   2   1   2
Cartesian
  1.9704230904244358  1.4439081921818371 16.0940275853641523
  1.9704230904244358  1.4439081921818371 18.5727461466075070
  0.1656831723893522  2.4858752696766553 15.0000000000000000
  0.1656831723893522  2.4858752696766553 19.6667737319714995
 -0.1666781449069512  0.7098431184615530 24.8724925241075852
  1.6380617731281322  1.7518101959563712 26.1045198936080567
 -0.1666781449069514  2.7937772734511901 23.6404651546071172
