Zr Br Ti Te
 1.0000000000000000
     3.5852413350405232    0.0000000000000000    0.0000000000000000
    -1.7926206675202616    3.1049100748431284    0.0000000000000000
     0.0000000000000000    0.0000000000000000   43.2822376068564978
 Zr  Br  Ti  Te 
   1   2   2   2
Cartesian
 -0.3612877092373303  1.1136215279131976 16.8261924305408073
  1.4313329582829315  2.1485915528609074 18.6523848530272502
  1.4313329582829315  2.1485915528609074 15.0000000000000000
  2.0545658338270631  1.3198649887183365 24.1879597044018411
  2.0545658338270631  1.3198649887183365 26.5670760831510933
  0.2619451663068018  2.3548350136660456 22.4728011693442333
  0.2619451663068018  2.3548350136660456 28.2822376068564978
