Ga S  Zr Se
 1.0000000000000000
     3.6205315036183547    0.0000000000000000    0.0000000000000000
    -1.8102657518091774    3.1354722573353664    0.0000000000000000
    -0.0000000000000000    0.0000000000000000   44.6149026889556097
 Ga  S   Zr  Se 
   2   2   2   2
Cartesian
  1.8504165161083468  1.3262844860097724 16.0940275853641523
  1.8504165161083468  1.3262844860097724 18.5727461466075034
  0.0401507642991696  2.3714419051215607 15.0000000000000000
  0.0401507642991696  2.3714419051215607 19.6667737319714995
  2.2370841665133674  1.5127097491626973 25.2560543515229874
  2.2370841665133674  1.5127097491626973 28.0022968602065703
  0.4268184147041902  2.5578671682744858 23.6434482653243911
  0.4268184147041902  2.5578671682744858 29.6149026889556133
