Hf O  Ni S 
 1.0000000000000000
     3.3040360722421123    0.0000000000000000    0.0000000000000000
    -1.6520180361210561    2.8613791735818257    0.0000000000000000
     0.0000000000000000    0.0000000000000000   37.8169681979099437
 Hf  O   Ni  S  
   1   2   1   2
Cartesian
  0.5328126765013296  0.6945723725761348 15.9724295917334587
  2.1848307126223858  1.6483654304367432 16.9448591834669173
  0.5328126765013296  2.6021584882973516 15.0000000000000000
  0.5712986167044212  0.7396324107800361 21.6415342696846835
  2.2233166528254773  1.6934254686406447 22.8169681979099401
  0.5712986167044212  2.6472185265012529 20.4661003414594269
