Pb Te Sr Cl
 1.0000000000000000
     4.3933373126748005    0.0000000000000000    0.0000000000000000
    -2.1966686563374007    3.8047417201704263    0.0000000000000000
     0.0000000000000000    0.0000000000000000   37.7696165590625199
 Pb  Te  Sr  Cl 
   1   1   1   2
Cartesian
  2.4115619340466639  1.6603604711181430 16.6845068820464775
  0.2148932777092635  2.9286077111749513 15.0000000000000000
  0.6037027107897491  0.4985134256855007 21.3732997349922691
  2.8003713671271497  1.7667606657423103 22.7696165590625199
  0.6037027107897491  3.0350079057991199 19.9769829109220218
