Ge Te Cl Cd
 1.0000000000000000
     3.9377613055392837    0.0012519794577290    0.0000000000000000
    -1.9677874706666636    3.4171922241476937    0.0000000000000000
    -0.0000000000000032   -0.0000000000000000  -40.2194362735040514
 Ge  Te  Cl  Cd 
   1   1   2   2
Cartesian
  2.7128612908053533  1.5830446210524700 -23.6596150395946268
  0.7443450320700380  2.7216913692824583 -25.2194362735040549
  1.0261528865298899 -0.2166135149581733 -20.5111542448488784
  1.0385393483261454  4.3171601936661528 -15.0000000000000036
  1.0388364745972685  2.0391241975237606 -16.4191145843245323
  1.0259137573603319  2.0614207781059801 -19.0922030609392905
