Al Te Pt Te
 1.0000000000000000
     4.0655639002903472   -0.0000000000000000    0.0000000000000000
    -2.0327819501451736    3.5208816183603848    0.0000000000000000
     0.0000000000000000    0.0000000000000000   41.8860529792219083
 Al  Te  Pt  Te 
   2   2   1   2
Cartesian
  2.3236198905411172  1.4528225124486425 16.2795918494368586
  2.3236198905411172  1.4528225124486425 18.8534102305006570
  0.2908379403959435  2.6264497185687707 15.0000000000000000
  0.2908379403959435  2.6264497185687707 20.1330020799375866
  0.1177292797969322  0.6522037054625387 25.4988387496683977
  2.1505112299421056  1.8258309115826670 26.8860529792219083
  0.1177292797969322  2.9994581177027957 24.1116245210713700
