Zr Br Cl Pd
 1.0000000000000000
     3.6153145884099769   -0.0000057074165551    0.0000000000000000
    -1.8076622377096894    3.1309282298924970    0.0000000000000000
    -0.0000000000000001    0.0000000000000000   40.9893891953211167
 Zr  Br  Cl  Pd 
   1   2   2   2
Cartesian
 -0.3332009579829825  1.3797693692659876 16.8261924305408108
  1.4744546883871053  2.4234083076191166 18.6523848530272502
  1.4744546883871053  2.4234083076191166 15.0000000000000000
 -0.7156426494674903  1.7365944163644196 21.9291164667682068
  2.8997231932534784  1.7365015381003288 25.9893891953211167
  1.0918004770861833  0.6927382333122464 24.7111855005110570
  1.0917931954601394  2.7800467348286229 23.2053321578440368
