Ru Cl Si Se
 1.0000000000000000
     3.5507040298918007   -0.0000000000000001    0.0000000000000000
    -1.7751601481749275    3.0755867139010036    0.0000000000000000
    -0.0000000000000012   -0.0000000000000021  -39.2353778324108688
 Ru  Cl  Si  Se 
   1   2   1   2
Cartesian
  0.5688563394077687 -0.0133723291456805 -23.0080016933138438
  2.3442723099439946  1.0118232421546538 -21.7806255436982497
  0.5689842505884186  2.0370188134549880 -24.2353778324108795
  0.5859798125974440  0.8681390403065136 -16.4396250289556463
  2.3619265754733263  1.8925107215201808 -17.8792530868155595
  0.5861618491006589  2.9177723900313852 -15.0000000000000000
