W  Se Zr Cl
 1.0000000000000000
     3.3645606613650010    0.0000000000000000    0.0000000000000000
    -1.6822803306825005    2.9137950053158628    0.0000000000000000
     0.0000000000000000    0.0000000000000000   40.7707236077708970
 W   Se  Zr  Cl 
   1   2   1   2
Cartesian
  0.2378834150457450  1.4327065480310972 16.6792764021964075
  1.9201637457282454  2.4039715498030514 18.3585528043928186
  1.9201637457282454  2.4039715498030514 15.0000000000000000
  0.3903612138541592  1.3684520864597658 24.0628243878521033
  2.0726415445366597  2.3397170882317200 25.7707236077708970
  2.0726415445366597  2.3397170882317200 22.3549251679332990
