Ca Cl Se Ti
 1.0000000000000000
     3.9937819783460697    0.0000000000000000    0.0000000000000000
    -1.9968909880186936    3.4596455685647625    0.0000000000000000
     0.0000000000000000    0.0000000000000000   40.2251424040040675
 Ca  Cl  Se  Ti 
   1   2   2   2
Cartesian
 -0.5246393507036273  1.5679524867642265 16.6160803132927661
  1.4722516388541882  2.7211676762858144 18.2321606265855323
  1.4722516388541882  2.7211676762858144 15.0000000000000000
  1.2078389305676209  0.6876191755791575 21.6658109461367872
  1.2079458124679310  2.9934659199729201 25.2251424040040675
  1.2076467185206969  0.6876862782435920 24.2991290822054395
  1.2081381053203786  2.9933988437769417 22.5918955695515464
