Sn Te Cd Br
 1.0000000000000000
     4.1174262502318513   -0.0000000000000000    0.0000000000000000
    -2.0587131251159261    3.5657957309096862    0.0000000000000000
    -0.0000000000000000    0.0000000000000000   38.2266083637850898
 Sn  Te  Cd  Br 
   1   1   1   2
Cartesian
  2.3058929869409477  1.5419064780618905 16.6861605505646438
  0.2471798618250217  2.7305050550317853 15.0000000000000000
  0.6437436145969728  0.4398988190213796 21.6600005130691393
  2.7024567397128982  1.6284973959912747 23.2266083637850898
  0.6437436145969727  2.8170959729611695 20.0933926623531995
