Pb Se S  Hf
 1.0000000000000000
     4.1128826716671147    0.0000000000000000    0.0000000000000000
    -2.0564413346488601    3.5623935062398955    0.0000000000000000
    -0.0000000000000000    0.0000000000000000   38.6905463452922049
 Pb  Se  S   Hf 
   1   1   2   2
Cartesian
  2.5312017194258760  1.2483276214894816 16.5482420467417022
  0.4747603839872178  2.4357921235694464 15.0000000000000000
  1.3381969224809893  1.3581848207028775 20.3650596987098318
  1.3385183606688060  3.7326029895631772 23.6905463452922049
  1.3383228521771504  1.3580614432706293 22.9696408340081177
  1.3383924211167986  3.7327263721495276 21.0860560441538851
