Ti F  W  O 
 1.0000000000000000
     2.8396427766826471    0.0000000000000000    0.0000000000000000
    -1.4198213883413235    2.4592027822801521    0.0000000000000000
     0.0000000000000001    0.0000000000000000   39.0725826013669675
 Ti  F   W   O  
   1   2   1   2
Cartesian
  0.2419979767189785  1.1239570162666990 16.3005111886215666
  1.6618193650603015  1.9436912770267496 17.6010226315821932
  1.6618193650603015  1.9436912770267496 15.0000000000000000
  0.3652614861118255  1.2240025984482008 22.8354455373787779
  1.7850828744531495  2.0437368592082512 24.0725826013669639
  1.7850828744531495  2.0437368592082512 21.5983084733905955
