I  In Tl Te Tl
 1.0000000000000000
     4.4992368100560558   -0.0000000000000000    0.0000000000000000
    -2.2496184037488707    3.8979174533096117    0.0000000000000000
     0.0000000000000000    0.0000000000000000   45.5512449860358899
 I   In  Tl  Te  Tl 
   2   2   1   2   1
Cartesian
  1.4102591172582488  0.3423509330484409 14.9999999999999982
  1.4103201052594239  2.9403962962349981 21.3524645728796330
  1.4095214275051542  0.3427950668683083 19.4937901734133021
  1.4110579305969644  2.9399526233922808 16.8594830012002319
  0.7916982163817688  3.3431786291362742 29.1721497738049749
  3.0411986474679837  2.0433155400082730 24.8931028655336775
  0.7913326939343692  0.7441725970741789 30.5512449860358899
  0.7912117762780596  3.3437382559127768 26.2721933743662923
