Hf I  Hf Se
 1.0000000000000000
     3.7249914528194203   -0.0000000000000000    0.0000000000000000
    -1.8624957264097102    3.2259372270215207    0.0000000000000000
     0.0000000000000000    0.0000000000000000   41.2578693360322006
 Hf  I   Hf  Se 
   1   2   1   2
Cartesian
  0.1653066811910976  1.4572225845648843 16.9476853944779826
  2.0278024076008077  2.5325349935720580 18.8953707810581477
  2.0278024076008077  2.5325349935720580 15.0000000000000018
  0.2855619418542257  1.4320117989383956 24.5753233593853011
  2.1480576682639354  2.5073242079455689 26.2578693360322006
  2.1480576682639354  2.5073242079455689 22.8927773878233296
