I  Pt S  Zn
 1.0000000000000000
     3.9426613028798689    0.0000237985287992    0.0000000000000000
    -1.9713100316156569    3.4147334213730876    0.0000000000000000
    -0.0000000000000002   -0.0000000000000000   40.9667628454522870
 I   Pt  S   Zn 
   2   2   2   2
Cartesian
 -0.6280016291811722  1.2837403630162079 15.0000000000000000
  3.3145065053125582  1.2839343314573852 19.3964869774338879
  1.3430960760281434  0.1455215600647211 17.9075952834741159
  1.3431430378748508  2.4219834246755552 16.4880841189940028
  1.3508205913742370  0.7881541282949344 22.8460202035492124
  1.3509054543188770  3.0644524620400606 25.9667628454522870
  1.3506929047510861  0.7882028501577931 25.4274802925585597
  1.3510331560627244  3.0644038700345657 23.3854486080285113
