Sn Te Ca Br
 1.0000000000000000
     4.2357417541254554   -0.0000000000000000    0.0000000000000000
    -2.1178708770627281    3.6682599629431034    0.0000000000000000
    -0.0000000000000000    0.0000000000000000   38.2448328597027754
 Sn  Te  Ca  Br 
   1   1   1   2
Cartesian
  2.3584656954217746  1.3944039860095228 16.6861605505646402
  0.2405948183590464  2.6171573069905572 15.0000000000000000
  0.7713946204862135  0.2383872269215065 21.6844598652353326
  2.8892654975489402  1.4611405479025417 23.2448328597027754
  0.7713946204862130  2.6838938688835769 20.1240868707678899
