Ca I  Se Hf
 1.0000000000000000
     4.3256469225671266   -0.0000000000000000    0.0000000000000000
    -2.1628234600652698    3.7468239968588724    0.0000000000000000
     0.0000000000000000    0.0000000000000000   41.5009106177145952
 Ca  I   Se  Hf 
   1   2   2   2
Cartesian
 -0.5694730625812952  1.4555837449211753 24.5518382886822835
  1.5933503991083662  2.7045250772074660 26.5009106177145952
  1.5933503991083662  2.7045250772074660 22.6027659596499468
  1.6554056929077718  1.0395280165357970 14.9999999999999964
  1.6556735260060156  3.5368305613370370 18.6912765295358625
  1.6554678433491776  1.0394597397199732 17.7686483511876077
  1.6556114517688416  3.5368988913322679 15.9230671053787312
