Ru Br Zn Br
 1.0000000000000000
     3.7892537760922633    0.0000000000000000    0.0000000000000000
    -1.8946268880461321    3.2815900314820112    0.0000000000000000
     0.0000000000000000    0.0000000000000000   39.0265396046871373
 Ru  Br  Zn  Br 
   1   2   1   2
Cartesian
  0.5224908332647735  0.7794002015262655 16.3168491539496046
  2.4171177213109045  1.8732635453536028 17.6336983078992056
  0.5224908332647733  2.9671268891809399 15.0000000000000000
  0.6131179646501029  0.6859095331228132 22.5439409993555167
  2.5077448526962334  1.7797728769501502 24.0265396046871373
  0.6131179646501030  2.8736362207774873 21.0613423940239137
