Hf I  Al Se
 1.0000000000000000
     3.7754381330650388   -0.0000000000000000    0.0000000000000000
    -1.8877190665325194    3.2696253336508176    0.0000000000000000
    -0.0000000000000000    0.0000000000000000   42.5130677765857286
 Hf  I   Al  Se 
   1   2   2   2
Cartesian
 -0.1999544815195335  1.1645392812467916 16.9476853944779791
  1.6877645850129857  2.2544143924637310 18.8953707810581477
  1.6877645850129857  2.2544143924637310 15.0000000000000000
  2.0544044015527390  1.3550063135717716 23.7577359608132284
  2.0544044015527390  1.3550063135717716 26.3455884437494205
  0.1666853350202193  2.4448814247887105 22.5902566279769559
  0.1666853350202193  2.4448814247887105 27.5130677765857286
