Cd I  Mg I 
 1.0000000000000000
     4.2658717958066568   -0.0000000000000000    0.0000000000000000
    -2.1329358979033288    3.6943533444561112    0.0000000000000000
     0.0000000000000000    0.0000000000000000   39.9341195368339399
 Cd  I   Mg  I  
   1   2   1   2
Cartesian
  0.5888847721237669  0.7380190880161563 16.7205164217779156
  2.7218206700270948  1.9694702028348603 18.4410328435558206
  0.5888847721237667  3.2009213176535640 15.0000000000000000
  0.6250734791306964  0.8150762773622741 23.2598018801660764
  2.7580093770340235  2.0465273921809786 24.9341195368339399
  0.6250734791306960  3.2779785069996832 21.5854842234982094
