Ti Br Pt S 
 1.0000000000000000
     3.5228379987927330    0.0000000000000000    0.0000000000000000
    -1.7614189993963665    3.0508672003716404    0.0000000000000000
     0.0000000000000000    0.0000000000000000   39.7139695459313913
 Ti  Br  Pt  S  
   1   2   1   2
Cartesian
 -0.5755359820376607  1.3953015874373631 16.6938534583278368
  1.1858830173587058  2.4122573208945766 18.3877069173080017
  1.1858830173587058  2.4122573208945766 15.0000000000000000
  0.3167228216710629  0.9556360929099105 23.4819421764309126
  2.0781418210674296  1.9725918263671240 24.7139695459313842
  0.3167228216710627  2.9895475598243375 22.2499148069304411
