Se Cd Tl Te Tl
 1.0000000000000000
     4.4862016686028987   -0.0000000000000000    0.0000000000000000
    -2.2431008330297377    3.8863876900902588    0.0000000000000000
     0.0000000000000000    0.0000000000000000   42.7494479247239241
 Se  Cd  Tl  Te  Tl 
   2   2   1   2   1
Cartesian
  1.2741480038301698  0.2168610356268724 14.9999999999999964
  1.2745077909173659  2.8068346338064525 18.5885916162562381
  1.2737458600712581  0.2170682238338785 17.8903171033845076
  1.2749119009187777  2.8066268510421053 15.6980628372997089
  0.8306458434396897  3.4026671164169993 26.3703527124930091
  3.0736290455934339  2.1066489300645808 22.0913058042217116
  0.8302813799825647  0.8113487597647309 27.7494479247239241
  0.8301608126451202  3.4032250878572095 23.4703963130543301
