I  Hg Ge I 
 1.0000000000000000
     4.3779917360201317   -0.0000000000000011    0.0000000000000000
    -2.1889958667375273    3.8073509446415601    0.0000000000000000
     0.0000000000000035    0.0000000000000000   42.9520727154429309
 I   Hg  Ge  I  
   2   2   1   2
Cartesian
  1.2235426270043646 -0.3925992729124582 15.0000000000000000
  1.2331291850222337  4.6489890709685993 20.9242317454966695
  1.2415654797572853  2.1143788121985159 19.3041194247390777
  1.2204001564861338  2.1382150827699795 16.6206582552528559
  0.7246204961974587  0.3145874153346239 26.2072968214616822
  2.9136163646317046  1.5837043968818092 27.9520727154429238
  0.7246204970458177  2.8528213784289957 24.4625209274804334
