Hf Br Ge S 
 1.0000000000000000
     3.4718740526355321    0.0000000000000000    0.0000000000000000
    -1.7359370263177660    3.0067311283224019    0.0000000000000000
    -0.0000000000000000    0.0000000000000000   40.3343276006187637
 Hf  Br  Ge  S  
   1   2   1   2
Cartesian
 -0.4094678344061986  1.0944136061537164 16.8486980501143790
  1.3264691919115674  2.0966573155945167 18.6973960898101055
  1.3264691919115674  2.0966573155945167 15.0000000000000000
  0.5369334592137193  0.8720369261918485 23.9373184747822734
  2.2728704855314854  1.8742806356326491 25.3343276006187637
  0.5369334592137193  2.8765243450734497 22.5403093489455841
