Ti Te Mg Br
 1.0000000000000000
     3.8101566266786242   -0.0000000000000000    0.0000000000000000
    -1.9050783133393123    3.2996924311013105    0.0000000000000000
     0.0000000000000000    0.0000000000000000   40.4134897158486481
 Ti  Te  Mg  Br 
   1   2   1   2
Cartesian
 -0.4105182636794471  1.2614445399793015 16.7885301883608946
  1.4945600496598650  2.3613420170130719 18.5770603767261022
  1.4945600496598650  2.3613420170130719 15.0000000000000000
  0.5504892387486428  0.8711546861020820 23.9064640674328821
  2.4555675520879530  1.9710521631358533 25.4134897158486410
  0.5504892387486425  3.0709496401696250 22.3994384190171196
