Pb S  Sr I 
 1.0000000000000000
     4.6813539412682719   -0.0000000000000000    0.0000000000000000
    -2.3406769706341359    4.0541714372447295    0.0000000000000000
     0.0000000000000000    0.0000000000000000   40.1406236333995707
 Pb  S   Sr  I  
   1   2   1   2
Cartesian
  0.2437816238469379  1.7391678671144353 16.0751107127686303
  2.5844585944810738  3.0905583461960120 17.1502214255372607
  2.5844585944810738  3.0905583461960120 15.0000000000000000
  0.4186697621657425  1.8344697024618246 23.1377386227204163
  2.7593467327998784  3.1858601815434011 25.1406236333995707
  2.7593467327998784  3.1858601815434011 21.1348536120414110
