Sn S  Ga S 
 1.0000000000000000
     3.6986845034843787   -0.0000000000000000    0.0000000000000000
    -1.8493422517421894    3.2031547406013048    0.0000000000000000
    -0.0000000000000000    0.0000000000000000   39.7881689394507347
 Sn  S   Ga  S  
   1   1   2   2
Cartesian
  1.7494965401476106  1.7962356381920868 16.4598471617338120
 -0.0998457115945789  2.8639538850591881 15.0000000000000000
  2.0994807782229685  1.3138639766986904 21.2154227928433876
  2.0994807782229685  1.3138639766986904 23.6941413540867423
  0.2501385264807797  2.3815822235657915 20.1213952074792353
  0.2501385264807797  2.3815822235657915 24.7881689394507347
