Si F  Pt Te
 1.0000000000000000
     3.9800621548365420    0.0000000000000000    0.0000000000000000
    -1.9900310774158940    3.4468349347283529    0.0000000000000000
     0.0000000000000012    0.0000000000000022   40.5971637805649266
 Si  F   Pt  Te 
   2   2   1   2
Cartesian
  1.2487676125265816  0.8789720428413603 16.6424290354395481
  1.2487676105484948  3.1768619993269280 17.3462560958598786
  1.2487676125265816  0.8789720428413597 15.0000000000000000
  1.2487676105484948  3.1768619993269280 18.9886851313004463
  0.5388550393647428 -0.0153926721536580 24.2099495510114160
  2.5288861167838053  1.1335523060891264 25.5971637805649266
  0.5388550393663274  2.2824972843319102 22.8227353224143883
