Sn S  Zr Se
 1.0000000000000000
     3.7453969615553300    0.0000000000000000    0.0000000000000000
    -1.8726984807776650    3.2436089159639643    0.0000000000000000
    -0.0000000000000000    0.0000000000000000   39.4990185528546363
 Sn  S   Zr  Se 
   1   2   1   2
Cartesian
  0.5228012226947841  0.7215354633834162 16.4775714027844273
  2.3954997034724492  1.8027384353714040 17.9551428055688476
  0.5228012226947841  2.8839414073593921 15.0000000000000018
  0.6082891510672637  0.8065865287993729 22.9184132477226044
  2.4809876318449287  1.8877895007873606 24.4990185528546363
  0.6082891510672637  2.9689924727753487 21.3378079425904588
