Br Cu Zn Br
 1.0000000000000000
     3.8753773725940195    0.0000000000000000    0.0000000000000000
    -1.9376886851681023    3.3569892362202896    0.0000000000000000
    -0.0000000000000000    0.0000000000000000   40.5284886020647690
 Br  Cu  Zn  Br 
   2   2   1   2
Cartesian
  1.1225525592443955  0.8542050993471397 15.0000000000000000
  1.1234531249282875  3.0912668152398202 18.6331282326220524
  1.1222118851852361  0.8544284073638941 17.4857902901367552
  1.1237917336930814  3.0910443178194535 16.1476785051133049
  0.6231308303251213  0.2985393354285967 24.0458899967331519
  2.5608195169984325  1.4175357475020265 25.5284886020647690
  0.6231308310777266  2.5365321595754562 22.5632913914015489
