Mo Te Si Se
 1.0000000000000000
     3.5278156499168416   -0.0000000000000001    0.0000000000000000
    -1.7637159581874475    3.0557647953912177    0.0000000000000000
     0.0000000000000011    0.0000000000000018   34.3800451887538117
 Mo  Te  Si  Se 
   1   2   1   2
Cartesian
 -0.6317817968531573  1.3930017837997206 17.5749451887538157
  1.1321899836955880  2.4115900489301270 19.3800451887538152
  1.1321899836955878  2.4115900489301265 15.7698451887538162
  0.7541481270463979  0.9577872515990796 16.4396280578599168
  2.5186472780350706  1.9755569365507086 15.0000000000000000
  0.7543298143447895  2.9942108729005716 17.8792530868155595
