Sn O  Ga N 
 1.0000000000000000
     3.3055321762957153   -0.0000000000000000    0.0000000000000000
    -1.6527660881478576    2.8626748376989504    0.0000000000000000
    -0.0000000000000000    0.0000000000000000   35.0092420824371118
 Sn  O   Ga  N  
   1   1   1   1
Cartesian
  1.8562270640598353  1.1618914112179433 16.0113936186181398
  0.2034609759119773  2.1161163571175932 15.0000000000000000
  0.1547159011363704  2.2315447513571538 20.0092420824371118
  1.8074819892842282  1.2773198054575035 20.0092420824371118
