Pb Cl Se Ti
 1.0000000000000000
     4.1109015097174542    0.0000000000000000    0.0000000000000000
    -2.0554507537043860    3.5610740580117106    0.0000000000000000
     0.0000000000000000    0.0000000000000000   40.2747211776932588
 Pb  Cl  Se  Ti 
   1   2   2   2
Cartesian
 -0.4253372891682234  1.6794424980588261 16.7004028302812486
  1.6301134660752836  2.8664671840627296 18.4008056605625043
  1.6301134660752836  2.8664671840627296 15.0000000000000000
  1.2415639484476975  0.6622550458321635 21.7153897198259713
  1.2416739646873469  3.0357036724259712 25.2747211776932517
  1.2413660996922640  0.6623241157853726 24.3487078558946237
  1.2418718966179640  3.0356346297172099 22.6414743432407306
