Ca Br Se Ti
 1.0000000000000000
     4.0802713930836161    0.0000000000000000    0.0000000000000000
    -2.0401356953874670    3.5345475988859261    0.0000000000000000
     0.0000000000000000    0.0000000000000000   40.4012544203127604
 Ca  Br  Se  Ti 
   1   2   2   2
Cartesian
 -0.4221649339488925  1.6673262392642634 16.7571598031843862
  1.6179707629776958  2.8455087722262387 18.5143196063686446
  1.6179707629776958  2.8455087722262387 15.0000000000000018
  1.2331923876925508  0.6587923289593890 21.8419229624454800
  1.2333015842125650  3.0145611244250441 25.4012544203127675
  1.2329960130980626  0.6588608844101584 24.4752410985141395
  1.2334980413625025  3.0144925960157787 22.7680075858602429
