Hf Br Pd S 
 1.0000000000000000
     3.5267921339794266    0.0000000000000000    0.0000000000000000
    -1.7633960669897133    3.0542915818933150    0.0000000000000000
     0.0000000000000000    0.0000000000000000   40.0559008854912690
 Hf  Br  Pd  S  
   1   2   1   2
Cartesian
 -0.6031939953644780  1.2775305355288240 16.8486980501143790
  1.1602020716252350  2.2956277294932623 18.6973960898101055
  1.1602020716252350  2.2956277294932623 15.0000000000000000
  0.4189199115450502  0.9578986808606944 23.8108290520867385
  2.1823159785347630  1.9759958748251327 25.0559008854912690
  0.4189199115450502  2.9940930687895713 22.5657572186822080
