Ti Te Ga Se
 1.0000000000000000
     3.7806078102248986   -0.0000000000000000    0.0000000000000000
    -1.8903039051124493    3.2741024054006203    0.0000000000000000
     0.0000000000000000    0.0000000000000000   42.1759692256118086
 Ti  Te  Ga  Se 
   1   2   2   2
Cartesian
 -0.5162731789674535  1.5053538695501048 16.7885301883608946
  1.3740307261449956  2.5967213380169780 18.5770603767261022
  1.3740307261449956  2.5967213380169780 15.0000000000000036
  1.9264719365877070  1.4145217989419971 23.5233411615032253
  1.9264719365877070  1.4145217989419971 25.9988963712954160
  0.0361680314752580  2.5058892674088700 22.3462683071856034
  0.0361680314752580  2.5058892674088700 27.1759692256118086
