Hf Te Bi O 
 1.0000000000000000
     3.9428272187614439    0.0000000000000000    0.0000000000000000
    -1.9714136093807220    3.4145885341801545    0.0000000000000000
     0.0000000000000000    0.0000000000000000  -40.9359471874763869
 Hf  Te  Bi  O  
   1   2   2   2
Cartesian
 -0.2936075345156370  1.1737671791793807 -16.8494380920246556
  1.6778060748650849  2.3119633572394318 -14.9999999999999982
  1.6778060748650849  2.3119633572394318 -18.6988761198817635
  2.5308220414663385  1.4822157414162400 -25.8079980419264459
  2.5308220414663385  1.4822157414162400 -22.6553818384836667
  0.5594084320856165  2.6204119194762918 -25.9359471874763869
  0.5594084320856164  2.6204119194762918 -22.5274327947348958
