Sn S  Cd Cl
 1.0000000000000000
     3.8258204548424497   -0.0000000000000000    0.0000000000000000
    -1.9129102274212251    3.3132577042116966    0.0000000000000000
    -0.0000000000000000    0.0000000000000000   38.0124742989296180
 Sn  S   Cd  Cl 
   1   1   1   2
Cartesian
  2.0405173464430644  1.5868645773764765 16.4598471617338120
  0.1276071190218396  2.6912838121137082 15.0000000000000000
  0.6793737610370469  0.1730961598594508 21.5746028823173255
  2.5922839884582713  1.2775153945966835 23.0124742989296180
  0.6793737610370472  2.3819346293339159 20.1367314657050507
