I  In Se Zr
 1.0000000000000000
     4.4021053187082559   -0.0000000000000000    0.0000000000000000
    -2.2010526568395754    3.8144060168975646    0.0000000000000000
     0.0000000000000000    0.0000000000000000   43.1817969405436699
 I   In  Se  Zr 
   2   2   2   2
Cartesian
  1.3109760727385322  0.9025080724699928 15.0000000000000018
  1.3110357449458974  3.4448912768904258 21.3524645728796401
  1.3102543085544938  0.9029426908874176 19.4937901734133021
  1.3117576417873256  3.4444571095738863 16.8594830012002319
  1.2495360423842354  1.0051854452703117 24.5223698395853447
  1.2498214018170057  3.5475993660240399 28.1817969405436699
  1.2495338699614387  1.0051476957597587 27.2962658639953446
  1.2498235876063457  3.5476370923970277 25.4081205952711286
