I  Cu Se Zn
 1.0000000000000000
     4.1261516624900203    0.0000000000000000    0.0000000000000000
    -2.0630758288880866    3.5735154327153902    0.0000000000000000
     0.0000000000000000    0.0000000000000000   40.5067975284448778
 I   Cu  Se  Zn 
   2   2   2   2
Cartesian
  1.2439660116556097  1.0098098942885665 15.0000000000000000
  1.2439659925961339  3.3921535280105450 18.8558029306399995
  1.2439660116556097  1.0098098942885669 17.6212990317599960
  1.2439659925961339  3.3921535280105450 16.2370991544799992
  1.4077306182098930  0.9518466270134527 22.0934939377538946
  1.4078372242142225  3.3340552062117830 25.5067975284448778
  1.4076288046994261  0.9519021978354486 24.7491911193638146
  1.4079390079573413  3.3339996333816502 22.8514755398421343
