Hf Te Zr I 
 1.0000000000000000
     3.8691959794103297    0.0000000000000000    0.0000000000000000
    -1.9345979897051648    3.3508220103899573    0.0000000000000000
    -0.0000000000000000    0.0000000000000000   41.5741815455279351
 Hf  Te  Zr  I  
   1   2   1   2
Cartesian
  0.1909620835702590  1.4186977807736332 16.8494380278571114
  2.1255600732754236  2.5356384509036189 18.6988761198817670
  2.1255600732754236  2.5356384509036189 15.0000000000000036
  0.3059569143999446  1.4882021151971432 24.6350363089388011
  2.2405549041051098  2.6051427853271290 26.5741815455279351
  2.2405549041051098  2.6051427853271290 22.6958910729757051
