Pb Br Se Hf
 1.0000000000000000
     4.2867460021002861   -0.0000000000000000    0.0000000000000000
    -2.1433729998318496    3.7131348115039904    0.0000000000000000
     0.0000000000000000    0.0000000000000000   40.7448331581583432
 Pb  Br  Se  Hf 
   1   2   2   2
Cartesian
 -0.4038344369224950  1.6581034031985258 16.8414801415537845
  1.7395385645337460  2.8958150070331894 18.6829602831084465
  1.7395385645337460  2.8958150070331894 15.0000000000000000
  1.3929764381365317  0.7706553578678985 22.0535566286224807
  1.3932418625956391  3.2455036618535678 25.7448331581583432
  1.3930380296535909  0.7705876949560919 24.8222049798100883
  1.3931803465975003  3.2455713774666242 22.9766237340012118
