Al Se Zn Br
 1.0000000000000000
     3.7879141195996580   -0.0000000000000000    0.0000000000000000
    -1.8939570597998292    3.2804298549270703    0.0000000000000000
    -0.0000000000000000    0.0000000000000000   41.8800174044729800
 Al  Se  Zn  Br 
   2   2   1   2
Cartesian
  2.1004639663205209  1.4573336896584743 16.1674793328362689
  2.1004639663205209  1.4573336896584743 18.7553318157724647
  0.2065069065206922  2.5508103079674980 15.0000000000000000
  0.2065069065206922  2.5508103079674980 19.9228111486087727
  0.0854046248810769  0.5844433691226061 25.3974187991413700
  1.9793616846809046  1.6779199874316293 26.8800174044729872
  0.0854046248810771  2.7713966057406521 23.9148201938097671
