Sn S  Mg Cl
 1.0000000000000000
     3.7124835978413619   -0.0000000000000000    0.0000000000000000
    -1.8562417989206814    3.2151051068636707    0.0000000000000000
    -0.0000000000000000    0.0000000000000000   37.8384453060959700
 Sn  S   Mg  Cl 
   1   1   1   2
Cartesian
  2.0549516685834104  1.5417992943348475 16.4598471617338120
  0.1987098696627291  2.6135009966227374 15.0000000000000000
  0.5457957535138691  0.1202743405606600 21.4655394413518330
  2.4020375524345501  1.1919760428485500 22.8384453060959700
  0.5457957535138694  2.2636777451364405 20.0926335766077031
