In O  Ni Se
 1.0000000000000000
     3.4910142462143208    0.0000000000000000    0.0000000000000000
    -1.7455071231071604    3.0233070221949845    0.0000000000000000
     0.0000000000000000    0.0000000000000000   40.9156959177734905
 In  O   Ni  Se 
   2   2   1   2
Cartesian
  1.6274261686614864  1.4784973126395686 15.7906696250192056
  1.6274261686614864  1.4784973126395686 18.6409348226404816
 -0.1180809544456738  2.4862663200378963 15.0000000000000000
 -0.1180809544456738  2.4862663200378963 19.4316044446728213
 -0.1001202029217099  0.7094051854497643 24.6703549737566803
  1.6453869201854503  1.7171741928480924 25.9156959177734905
 -0.1001202029217101  2.7249432002464200 23.4250140302785255
