Zr Br Ga S 
 1.0000000000000000
     3.6038084452335974    0.0000000000000000    0.0000000000000000
    -1.8019042226167987    3.1209896639451964    0.0000000000000000
     0.0000000000000000    0.0000000000000000   42.1867111589249504
 Zr  Br  Ga  S  
   1   2   2   2
Cartesian
 -0.5894907100013065  1.4669034456723025 16.8261924305408073
  1.2124135126154922  2.5072333336540340 18.6523848530272502
  1.2124135126154922  2.5072333336540340 15.0000000000000000
  2.0007083966527102  1.3560405149370620 23.6139650123176033
  2.0007083966527102  1.3560405149370620 26.0926835735609579
  0.1988041740359116  2.3963704029187936 22.5199374269534545
  0.1988041740359116  2.3963704029187936 27.1867111589249504
