Ti Cl Hf O 
 1.0000000000000000
     3.2667279256894615    0.0000000000000000    0.0000000000000000
    -1.6333639628447307    2.8290693708991173    0.0000000000000000
     0.0000000000000000    0.0000000000000000   39.0528488040752393
 Ti  Cl  Hf  O  
   1   2   1   2
Cartesian
 -0.5150789567964603  1.2416883161967780 16.5858594364141609
  1.1182850060482696  2.1847114398298171 18.1717191271673713
  1.1182850060482696  2.1847114398298171 15.0000000000000018
  0.6006175494734241  0.7833407985392904 23.0804192123417806
  2.2339815123181546  1.7263639221723295 24.0528488040752393
  0.6006175494734241  2.6693870458053688 22.1079896206083220
