I  Pt Tl S  Tl
 1.0000000000000000
     4.0118399113469403    0.0000237985287992    0.0000000000000000
    -2.0058993369695228    3.4743880824815170    0.0000000000000000
    -0.0000000000000002   -0.0000000000000000   43.5651869638232156
 I   Pt  Tl  S   Tl 
   2   2   1   2   1
Cartesian
 -0.5202570746048001  1.4795573577660521 14.9999999999999982
  3.4914269808192580  1.4797542990449242 19.3964869774338844
  1.4854259684949218  0.3214539776801810 17.9075952834741159
  1.4854735123997398  2.6376850046431608 16.4880841189939993
  0.7331592809777691  3.1866951924350482 27.3683295779916484
  2.7389281906354568  2.0281163492733634 23.2874395516662425
  0.7328235116446040  0.8701319834639023 28.5651869638232156
  0.7326930867998707  3.1871550053683100 24.4842948329776924
