Al Se Pt Se
 1.0000000000000000
     3.7629906783111702   -0.0000000000000000    0.0000000000000000
    -1.8814953391555851    3.2588455216215095    0.0000000000000000
    -0.0000000000000000    0.0000000000000000   41.5302869406968753
 Al  Se  Pt  Se 
   2   2   1   2
Cartesian
  2.0676157028780260  1.4351025857100297 16.1674793328362654
  2.0676157028780260  1.4351025857100297 18.7553318157724647
  0.1861203637224408  2.5213844262505334 14.9999999999999982
  0.1861203637224408  2.5213844262505334 19.9228111486087727
  0.0639716775498641  0.6444037477802234 25.2204782188891343
  1.9454670167054493  1.7306855883207266 26.5302869406968824
  0.0639716775498639  2.8169674288612296 23.9106694909917508
