Ca Cl Se Zn
 1.0000000000000000
     4.0105895746974340    0.0000000000000000    0.0000000000000000
    -2.0052947861847752    3.4734357310389479    0.0000000000000000
     0.0000000000000000    0.0000000000000000   39.9973391862686256
 Ca  Cl  Se  Zn 
   1   2   2   2
Cartesian
 -0.4490938188155448  1.6844681492476123 16.6160803132927661
  1.5562009689211531  2.8422800595939277 18.2321606265855323
  1.5562009689211531  2.8422800595939277 15.0000000000000000
  1.2331976624376617  0.6843312379581646 21.5840355955776424
  1.2333012819516005  2.9998237980357745 24.9973391862686256
  1.2330987004418084  0.6843852524663872 24.2397327771875624
  1.2334002150138073  2.9997697815756545 22.3420171976658821
