Sn Te S  Cd
 1.0000000000000000
     4.2441367581057845   -0.0000000000000000    0.0000000000000000
    -2.1220683778203520    3.6769960137521194    0.0000000000000000
     0.0000000000000000    0.0000000000000000   38.8492520203653058
 Sn  Te  S   Cd 
   1   1   2   2
Cartesian
  2.3731762664749558  1.3504863182619464 16.6861605505646402
  0.2511078878329102  2.5761516561793192 15.0000000000000000
  1.6145956354192199  1.4573538214937773 20.6118436165179517
  1.6149099508617195  3.9074714524172194 23.8492520203653058
  1.6142295028644611  1.4574231506497783 23.4251934620806210
  1.6152763063164324  3.9074021454326093 21.0357945091775207
