Hf I  Cl Pt
 1.0000000000000000
     3.7022514388144101    0.0000000000000002    0.0000000000000000
    -1.8511257183700631    3.2068115474011178    0.0000000000000000
    -0.0000000000000002    0.0000000000000000   40.9388970883430048
 Hf  I   Cl  Pt 
   1   2   2   2
Cartesian
  0.0989381006124747  1.4552225853479608 16.9476853944779791
  1.9500638203653935  2.5241597678150001 18.8953707810581477
  1.9500638203653935  2.5241597678150001 15.0000000000000000
 -0.7546746961252347  1.8142123780457373 21.7555670463634883
  2.9464401220179148  1.8153965342180869 25.9388970883430048
  1.0961514540178066  0.7463297040466682 24.5901142240868680
  1.0963725817173702  2.8837635368388228 23.1063511744285002
