Ge S  In O 
 1.0000000000000000
     3.4643107962775428   -0.0000000000000000    0.0000000000000000
    -1.7321553981387714    3.0001811561810490    0.0000000000000000
     0.0000000000000000    0.0000000000000000   39.5108689682961014
 Ge  S   In  O  
   1   1   2   2
Cartesian
  1.6277400851502755  1.7481260520934976 16.3610326690029417
 -0.1044153129884956  2.7481864374871803 15.0000000000000000
  1.9659173956637477  1.2339441110750657 20.8699341486424856
  1.9659173956637477  1.2339441110750657 23.7201993462637617
  0.2337619975249766  2.2340044964687484 20.0792645236232801
  0.2337619975249766  2.2340044964687484 24.5108689682961014
