Ti Te Zr Se
 1.0000000000000000
     3.6662576614217044    0.0000000000000000    0.0000000000000000
    -1.8331288307108522    3.1750722716105235    0.0000000000000000
    -0.0000000000000000    0.0000000000000000   43.3491926401699175
 Ti  Te  Zr  Se 
   1   2   2   2
Cartesian
 -0.4817076973294421  1.2093789799805930 16.7885301883608946
  1.3514211333814101  2.2677364038507677 18.5770603767261022
  1.3514211333814101  2.2677364038507677 14.9999999999999964
  1.9488883047228140  1.3684359271340023 23.9903443027372916
  1.9488883047228140  1.3684359271340023 26.7365868114208709
  0.1157594740119620  2.4267933510041768 22.3777382165386953
  0.1157594740119620  2.4267933510041768 28.3491926401699175
