Pb I  Au
 1.0000000000000000
     4.7261707668534942   -0.0000000000000000    0.0000000000000000
    -2.3630853834267462    4.0932181765147622    0.0000000000000000
     0.0000000000000000    0.0000000000000000  -37.5043858088519215
 Pb  I   Au 
   1   3   1
Cartesian
  1.1889708274628554  0.4879337745497053 -20.6369761403936387
  3.5520562108896030  1.8523398333879579 -18.7695664719353488
  1.1889708274628559  3.2167458922262107 -22.5043858088519215
  0.3176351242694558  1.5029624874537628 -14.9999999999999964
  2.6807205076962037  2.8675788907637507 -14.9999999999999964
