Hg F  Sn S 
 1.0000000000000000
     3.6775464806708138   -0.0000000000000000    0.0000000000000000
    -1.8387732403354051    3.1848486758589809    0.0000000000000000
     0.0000000000000002    0.0000000000000000   38.5214807633159708
 Hg  F   Sn  S  
   1   2   1   2
Cartesian
  0.4425387408998349  0.7263786107602908 16.0286721523601869
  2.2813119812352323  1.7879948360466176 17.0573443047204023
  0.4425387408998334  2.8496110613329444 15.0000000000000000
  0.6005956154303925  0.5955080322507483 22.0439093605315470
  2.4393688557658000  1.6571242575370753 23.5214807633159708
  0.6005956154303937  2.7187404828234021 20.5663379577471233
