Ge S  Si Se
 1.0000000000000000
     3.4982898840058190   -0.0000000000000001    0.0000000000000000
    -1.7489530752319364    3.0301947320460796    0.0000000000000000
     0.0000000000000012    0.0000000000000020   38.2248495314751509
 Ge  S   Si  Se 
   1   1   1   2
Cartesian
  2.2673470735735837  1.3714080648856417 16.3610326690029417
  0.5182660871609991  2.3814729755676680 15.0000000000000000
  0.6813750289281294  0.0548583189085930 21.7852245025195046
  2.4311068827471560  1.0641114991363556 20.3455964446595914
  0.6815562657560252  2.0742415315134632 23.2248495314751509
