Ge Cl Zn I 
 1.0000000000000000
     4.1661672607322799   -0.0000000000000002    0.0000000000000000
    -2.0830836303661404    3.6080066842102601    0.0000000000000000
     0.0000000000000010    0.0000000000000017   42.2605539703814017
 Ge  Cl  Zn  I  
   2   2   1   2
Cartesian
  1.2713398385612578  0.7030441739000023 17.1900136315555017
  1.2713398422001509  3.1083819633735108 17.8618516334689765
  1.2713398385612578  0.7030441739000018 14.9999999999999964
  1.2713398422001512  3.1083819633735108 20.0518652577973953
  0.7620074495194626  0.3787001742099941 25.6331482018690124
  2.8450910798856017  1.5813690689467474 27.2605539703813946
  0.7620074495194619  2.7840379636835015 24.0057424333566232
