Ge Cl Hg Br
 1.0000000000000000
     4.1878375494372957   -0.0000000000000002    0.0000000000000000
    -2.0939187747186478    3.6267737047361459    0.0000000000000000
     0.0000000000000010    0.0000000000000017   42.1272207938648080
 Ge  Cl  Hg  Br 
   2   2   1   2
Cartesian
  1.2533942207965187  0.8149234247511584 17.1900136315555052
  1.2533942244543399  3.2327725612419238 17.8618516334689801
  1.2533942207965187  0.8149234247511580 15.0000000000000018
  1.2533942244543401  3.2327725612419238 20.0518652577974024
  0.6499494616673953  0.1386841336175507 25.5378132177340049
  2.7438682363860418  1.3476087018629326 27.1272207938648080
  0.6499494616673951  2.5565332701083152 23.9484056416032089
