Ge Te Cd Br
 1.0000000000000000
     4.0027649746801908   -0.0000000000000000    0.0000000000000000
    -2.0013824873400958    3.4664961534516157    0.0000000000000000
     0.0000000000000000    0.0000000000000000   38.2248626122514992
 Ge  Te  Cd  Br 
   1   1   1   2
Cartesian
  2.2256270504211253  0.9878671169731791 16.5598212339094317
  0.2242445630810301  2.1433658347903841 15.0000000000000018
  0.9072313006756241  0.0156829742338030 21.6582547615355416
  2.9086137880157192  1.1711816920510079 23.2248626122514992
  0.9072313006756241  2.3266804098682128 20.0916469108196054
