Cr S  Ge O 
 1.0000000000000000
     3.0292145006839699   -0.0000000000000000    0.0000000000000000
    -1.5146072503419850    2.6233767111045161    0.0000000000000000
    -0.0000000000000000    0.0000000000000000   37.6632263874501092
 Cr  S   Ge  O  
   1   2   1   1
Cartesian
 -0.3156522796698201  1.5797655278019931 16.4740845698072640
  1.1989549706721645  2.4542244315034987 17.9481691396145280
  1.1989549706721645  2.4542244315034987 15.0000000000000000
  1.3368427127775613  1.0709960804496805 22.6632263874501092
 -0.1777645375644240  1.9454549841511859 21.6687845891669859
