Sr Cl Se Hf
 1.0000000000000000
     4.2449879905987711   -0.0000000000000000    0.0000000000000000
    -2.1224939940810921    3.6769713127321557    0.0000000000000000
     0.0000000000000000    0.0000000000000000   40.3896761312083683
 Sr  Cl  Se  Hf 
   1   2   2   2
Cartesian
 -0.4160661030033607  1.6472187927778870 16.6559757380194853
  1.7064278927021226  2.8728758970219390 18.3119514760389670
  1.7064278927021226  2.8728758970219390 15.0000000000000000
  1.3182884280924840  0.7788851680738702 21.6983996016724952
  1.3185512670091537  3.2296300720632947 25.3896761312083612
  1.3183494196348127  0.7788181641544656 24.4670479528601064
  1.3184903502501018  3.2296971281706734 22.6214667070512299
