Br Hg Se Zr
 1.0000000000000000
     4.2523858859834380    0.0010674728082233    0.0000000000000000
    -2.1252608637914943    3.6897788569551495    0.0000000000000000
     0.0000000000000035    0.0000000000000000   42.4056790249653872
 Br  Hg  Se  Zr 
   2   2   2   2
Cartesian
  1.2303943351759095 -0.3249832660447868 15.0000000000000000
  1.2411715967359409  4.5726592664498051 20.7696522731609825
  1.2457631040674209  2.1098589421565346 19.2178916173209409
  1.2263682331168682  2.1374926650816097 16.5512692941072110
  1.2534571761066735  1.0744789143256166 23.7462519240070620
  1.2543540868286622  3.5341809837097178 27.4056790249653872
  1.2534550683455099  1.0744423923866893 26.5201479484170619
  1.2543562074961074  3.5342174832670517 24.6320026796928460
