Ge Cl Ga Te Ga
 1.0000000000000000
     4.1904591357031791   -0.0000000000000002    0.0000000000000000
    -2.0952295706997770    3.6290800292568486    0.0000000000000000
     0.0000000000000011    0.0000000000000017   43.8550942189854212
 Ge  Cl  Ga  Te  Ga 
   2   2   1   2   1
Cartesian
  1.7881011697575617  0.4812254751752992 17.1900136315555017
  1.7881011715188810  2.9006121613465328 17.8618516334689801
  1.7881011697575617  0.4812254751752988 15.0000000000000000
  1.7881011715188813  2.9006121613465328 20.0518652577973988
  0.5809516049777360  3.2947500714545237 27.5934712529693300
  2.6762319818418918  2.0850329699991019 23.8664404783194968
  0.5809406116602513  0.8753757599231774 28.8550942189854140
  0.5809914474487066  3.2947386692707630 25.1280755255248245
