Pb Te Cl Ag
 1.0000000000000000
     4.3620907208036730    0.0000000000000000    0.0000000000000000
    -2.1810453591450800    3.7857520285333379    0.0000000000000000
     0.0000000000000000    0.0000000000000000  -38.7826386640176324
 Pb  Te  Cl  Ag 
   1   1   2   2
Cartesian
  2.4753145761069915  1.7610747661750412 -22.0981317819711620
  0.2942692161240741  3.0229921090194871 -23.7826386640176395
  1.8738828553463198  0.7081369552457850 -18.2868565417186026
  1.8694103977818686  3.2267703936043652 -15.0000000000000000
  1.8693514794292307  0.7102811067539845 -15.3093543493862612
  1.8739772812877658  3.2246076443664906 -17.9788080813823363
