Tl Se Cd I 
 1.0000000000000000
     4.2735103521978282    0.0000000000000000    0.0000000000000000
    -2.1367551760989145    3.7009685283391027    0.0000000000000000
     0.0000000000000000    0.0000000000000000   42.8819953588898315
 Tl  Se  Cd  I  
   2   2   1   2
Cartesian
  2.3513145363774850  1.6533215822962661 16.2878300414387418
  2.3513145363774850  1.6533215822962661 19.1809988256016233
  0.2145593602785706  2.8869777584093006 15.0000000000000000
  0.2145593602785706  2.8869777584093006 20.4688289080443653
 -0.0941920318231890  0.7694444840117032 26.1614789371119265
  2.0425631442757246  2.0031006601247374 27.8819953588898315
 -0.0941920318231892  3.2367568362377717 24.4409625153340109
