Hf Cl Ti Br
 1.0000000000000000
     3.4107117359558252    0.0000000000000000    0.0000000000000000
    -1.7053558679779126    2.9537630083234667    0.0000000000000000
     0.0000000000000000    0.0000000000000000   40.8438610229624501
 Hf  Cl  Ti  Br 
   1   2   1   2
Cartesian
  0.2065583150544796  1.3754762433057364 16.7299570918342546
  1.9119141830323922  2.3600639127468916 18.4599141836685092
  1.9119141830323922  2.3600639127468916 15.0000000000000000
  0.3843975176324133  1.3516438438814149 24.1500075639822818
  2.0897533856103259  2.3362315133225704 25.8438610229624501
  2.0897533856103259  2.3362315133225704 22.4561541056544449
