Ba Br Pb Se
 1.0000000000000000
     4.7848964854231486    0.0000000000000000    0.0000000000000000
    -2.3924482427115743    4.1438419108553237    0.0000000000000000
     0.0000000000000000    0.0000000000000000  -40.0824088691073683
 Ba  Br  Pb  Se 
   1   2   1   2
Cartesian
  0.4367374625387477  1.5594144550012974 -16.8371869788974386
  2.8291857052503220  2.9406950919530717 -14.9999999999999964
  2.8291857052503220  2.9406950919530717 -18.6743739577948809
  0.3418287131371870  1.9243679718368452 -23.8694004250245371
  2.7342769558487614  3.3056486087886201 -22.6563919809416987
  2.7342769558487614  3.3056486087886201 -25.0824088691073683
