Br Cd Ga Te Ga
 1.0000000000000000
     4.1263532766205087    0.0014024937248978    0.0000000000000000
    -2.0619520356566108    3.5793805470972204    0.0000000000000000
     0.0000000000000034    0.0000000000000000   43.9160115984167305
 Br  Cd  Ga  Te  Ga 
   2   2   1   2   1
Cartesian
  1.1859974300855864 -1.0326724456121210 15.0000000000000018
  1.1993562726802045  3.7161211565127124 20.7228492099078068
  1.1991767324431601  1.3300450589447139 19.2010592037222949
  1.1857609940454621  1.3537400006214324 16.5215258816321011
  0.6803234710651008  3.0783799967038452 27.6543886324006465
  2.7431419312725365  1.8856972249897621 23.9273578577508133
  0.6794962464608405  0.6916710046137375 28.9160115984167305
  0.6803627001763238  3.0783687618021038 25.1889929049561374
