Hf I  Cd Cl
 1.0000000000000000
     3.8363772703859094   -0.0000000000000000    0.0000000000000000
    -1.9181886351929549    3.3224001746553995    0.0000000000000000
     0.0000000000000000    0.0000000000000000   40.6074280857457381
 Hf  I   Cd  Cl 
   1   2   1   2
Cartesian
 -0.5435837489050523  1.3890219139272308 16.9476853944779826
  1.3746048862879019  2.4964886388123637 18.8953707810581477
  1.3746048862879019  2.4964886388123637 15.0000000000000000
  0.4580522568487531  0.9503540623859124 24.1695566691334420
  2.3762408920417073  2.0578207872710461 25.6074280857457381
  0.4580522568487532  3.1652875121561799 22.7316852525211708
