Ti I  Cl Pd
 1.0000000000000000
     3.7186317875253172   -0.0000057074165551    0.0000000000000000
    -1.8593208372673593    3.2204035489742369    0.0000000000000000
    -0.0000000000000001    0.0000000000000000   40.7871358826211718
 Ti  I   Cl  Pd 
   1   2   2   2
Cartesian
 -0.3861651975786147  1.4407147543937171 16.8143657812576208
  1.4731490483491434  2.5141787991074258 18.6287315661405408
  1.4731490483491434  2.5141787991074258 15.0000000000000000
 -0.9588815025622865  1.8159016634690190 21.7268631540682620
  2.7598030039979085  1.8158062940461748 25.7871358826211718
  0.9002140560398336  0.7422143287520639 24.5089321878111122
  0.9002066605056471  2.8891737550765750 23.0030788451440955
