Zr Te Zn Br
 1.0000000000000000
     3.8603146249064908    0.0000000000000000    0.0000000000000000
    -1.9301573124532458    3.3431305317696176    0.0000000000000000
     0.0000000000000000    0.0000000000000000  -40.3642031282054887
 Zr  Te  Zn  Br 
   1   2   1   2
Cartesian
 -0.7678464768038026  1.5479716636313268 -16.8615645620743919
  1.1623108356494425  2.6623485075545328 -15.0000000000000018
  1.1623108356494425  2.6623485075545328 -18.7231291241485991
  0.7535927992405427  1.1263438932850647 -23.8816045228738858
  2.6837501116937870  2.2407207372082700 -22.3990059175422651
  0.7535927992405427  3.3550975811314760 -25.3642031282054887
