Zr I  Cd Cl
 1.0000000000000000
     3.8643304572936472   -0.0000000000000000    0.0000000000000000
    -1.9321652286468236    3.3466083446342347    0.0000000000000000
     0.0000000000000000    0.0000000000000000   40.6196315315829040
 Zr  I   Cd  Cl 
   1   2   1   2
Cartesian
 -0.5928777565447743  1.6014839283664326 16.9391452359630961
  1.3392874721020496  2.7170200432445109 18.8782904725522229
  1.3392874721020496  2.7170200432445109 14.9999999999999982
  0.3809819646946580  0.8632373449384982 24.1817601149706149
  2.3131471933414809  1.9787734598165767 25.6196315315829111
  0.3809819646946582  3.0943095746946554 22.7438886983583473
