Cd Br Zn I 
 1.0000000000000000
     4.0809854598780717    0.0000000000000000    0.0000000000000000
    -2.0404927299390359    3.5342370807293291    0.0000000000000000
     0.0000000000000000    0.0000000000000000   39.7503726817606520
 Cd  Br  Zn  I  
   1   2   1   2
Cartesian
  0.4418916432859177  0.7436168226684130 16.5666078507159362
  2.4823843732249538  1.9216958495781888 18.1332157014318867
  0.4418916432859180  3.0997748764879649 15.0000000000000000
  0.5961426658371980  0.6324700367709525 23.1229669132482698
  2.6366353957762332  1.8105490636807291 24.7503726817606520
  0.5961426658371975  2.9886280905905056 21.4955611447358805
