Cl Ag I  Hg
 1.0000000000000000
     4.4279156137856486   -0.0000000000000011    0.0000000000000000
    -2.2139578043635293    3.8586569417469203    0.0000000000000000
     0.0000000000000034    0.0000000000000000   42.6102669394284774
 Cl  Ag  I   Hg 
   2   2   2   2
Cartesian
  1.5120699778474307  1.0024912380672593 15.0000000000000000
  1.5075300307644361  3.5696277877908740 18.2868565417185991
  1.5074702224878227  1.0046766810225591 17.9775021923323379
  1.5121658295300453  3.5674233889562212 15.3080484603362645
  1.4321089952641812 -0.4932658580312111 21.6860351939318114
  1.4418048740348282  4.6162604618175260 27.6102669394284774
  1.4503373701681523  2.0474950362423723 25.9901546186708892
  1.4289306908046366  2.0716525127249072 23.3066934491846638
