Hg F  Zn Cl
 1.0000000000000000
     3.6290059571046340   -0.0000000000000000    0.0000000000000000
    -1.8145029785523152    3.1428113493376717    0.0000000000000000
     0.0000000000000002    0.0000000000000000   38.1576633994475571
 Hg  F   Zn  Cl 
   1   2   1   2
Cartesian
  0.6148098626032170  0.6916000848914545 16.0286721523601834
  2.4293128411555243  1.7392038680040116 17.0573443047203988
  0.6148098626032154  2.7868076511165687 15.0000000000000000
  0.5253460998615311  0.6663389732523463 21.7901964108654411
  2.3398490784138484  1.7139427563649032 23.1576633994475571
  0.5253460998615324  2.7615465394774596 20.4227294222833038
