Hf O  Al N 
 1.0000000000000000
     3.1945092281347600    0.0000000000000000    0.0000000000000000
    -1.5972546140673800    2.7665261441885209    0.0000000000000000
     0.0000000000000000    0.0000000000000000  -35.9336622920910500
 Hf  O   Al  N  
   1   2   1   1
Cartesian
  0.5010196584058935  0.3656057263084072 -15.9724295917334569
  2.0982742724732737  1.2877811077045807 -14.9999999999999982
  0.5010196584058935  2.2099564891007546 -16.9448591834669173
  0.7629974690383065  2.0633949815114012 -20.9336622920910465
  2.3602520831056863  1.1412196001152277 -20.9336622920910465
