Ca Cl S  Zn
 1.0000000000000000
     3.9342411246960318    0.0000000000000000    0.0000000000000000
    -1.9671205612276852    3.4074085298227361    0.0000000000000000
    -0.0000000000000000    0.0000000000000000   39.8674600189834791
 Ca  Cl  S   Zn 
   1   2   2   2
Cartesian
 -0.5987883399208629  1.5121756933258226 16.6160803132927697
  1.3683322228005967  2.6479785366000677 18.2321606265855323
  1.3683322228005967  2.6479785366000677 15.0000000000000018
  1.0901448167936025  0.7597699972974938 21.7467173770804045
  1.0902157832515711  3.0311775633275451 24.8674600189834791
  1.0900174025719098  0.7598186152475095 24.3281774660897554
  1.0903432125608850  3.0311290749557958 22.2861457815597035
