Ga Se In S 
 1.0000000000000000
     3.8694852025482325   -0.0000000000000000    0.0000000000000000
    -1.9347426012741162    3.3510724849747433    0.0000000000000000
     0.0000000000000000    0.0000000000000000   43.9984882943806994
 Ga  Se  In  S  
   2   2   2   2
Cartesian
  2.1553254099925323  1.2491906693107626 16.1770728543176290
  2.1553254099925323  1.2491906693107626 18.6526280641098126
  0.2205828087184165  2.3662148309690103 15.0000000000000000
  0.2205828087184165  2.3662148309690103 19.8297009184262052
  2.2228817581175386  1.4629202175270177 25.0018080551995396
  2.2228817581175386  1.4629202175270177 27.8207655634529445
  0.2881391568434226  2.5799443791852652 23.8240853242648818
  0.2881391568434226  2.5799443791852652 28.9984882943806994
