Pb Te Ge I 
 1.0000000000000000
     4.3121668430381561    0.0000000000000000    0.0000000000000000
    -2.1560834215190781    3.7344460314279777    0.0000000000000000
     0.0000000000000000    0.0000000000000000   38.5993270454584589
 Pb  Te  Ge  I  
   1   1   1   2
Cartesian
  2.3556597567180062  1.4265500379583826 16.6845068820464775
  0.1995763351989282  2.6713653817677083 14.9999999999999982
  0.7825719094935997  0.2773967045419302 21.8545511514772173
  2.9386553310126775  1.5222120483512556 23.5993270454584589
  0.7825719094935998  2.7670273921605806 20.1097752574959650
