Ba Br Sr I 
 1.0000000000000000
     4.6639353393357137   -0.0000000000000000    0.0000000000000000
    -2.3319676696678568    4.0390864854727244    0.0000000000000000
     0.0000000000000000    0.0000000000000000   41.6780729624925641
 Ba  Br  Sr  I  
   1   2   1   2
Cartesian
  0.1652409898450561  1.5944627050563731 16.8371869788974422
  2.4972086595129128  2.9408248668806145 18.6743739577948844
  2.4972086595129128  2.9408248668806145 15.0000000000000000
  0.2407649026674125  1.7065686621936513 24.6751879518134132
  2.5727325723352692  3.0529308240178925 26.6780729624925641
  2.5727325723352692  3.0529308240178925 22.6723029411344115
