Al S  Hf S 
 1.0000000000000000
     3.6180934214434468    0.0000000000000000    0.0000000000000000
    -1.8090467107217234    3.1333608162353817    0.0000000000000000
    -0.0000000000000000    0.0000000000000000   41.5927064355766589
 Al  S   Hf  S  
   2   2   1   2
Cartesian
  2.0336729347974618  1.4191875198796549 16.0691806254429004
  2.0336729347974618  1.4191875198796549 18.6673481735629530
  0.2246262240757390  2.4636411252914487 15.0000000000000000
  0.2246262240757390  2.4636411252914487 19.7365287990058356
 -0.1916997533337926  0.7517435294172954 25.1446021335854653
  1.6173469573879307  1.7961971348290893 26.5927064355766589
 -0.1916997533337926  2.8406507402408834 23.6964978315946055
