Ti F  Ti H 
 1.0000000000000000
     2.8176403556734235    0.0000000000000000    0.0000000000000000
    -1.4088201778367118    2.4401481267414038    0.0000000000000000
     0.0000000000000001    0.0000000000000000   38.8673288930921785
 Ti  F   Ti  H  
   1   2   1   2
Cartesian
  0.2728626598629237  1.0994006416374853 16.3005111886215701
  1.6816828376996349  1.9127833505512866 17.6010226315821967
  1.6816828376996349  1.9127833505512866 15.0000000000000018
  0.1568544913655087  1.1350869294122592 22.7329325423943231
  1.5656746669904860  1.9484696415086824 23.8673288930921785
  1.5656746669904860  1.9484696415086824 21.5985362121595728
