S  Ir Se Ir
 1.0000000000000000
     3.3437147023224485    0.0000000000000000    0.0000000000000000
    -1.6718573492512414    2.9009742222275317    0.0000000000000000
    -0.0000000000000001    0.0000000000000000   42.9697757180087905
 S   Ir  Se  Ir 
   2   2   2   2
Cartesian
  1.0498716577750697  0.7332730559779208 15.0000000000000000
  1.0497206464140962  2.6674020581028191 19.6502937780201528
  1.0496774770699151  0.7336289765265014 18.3976254675456055
  1.0499150772852586  2.6670458663741980 16.2526844590143256
  0.9311035455112343  0.8188587843072055 23.1950319813618755
  0.9308538155808513  2.7520383220210545 27.9697757180087905
  0.9307862078556447  0.8211555316258773 26.5852855122321365
  0.9311712536248301  2.7497396330024895 24.5795530638152933
