Zr Se Mg Cl
 1.0000000000000000
     3.6343305979753380    0.0000000000000000    0.0000000000000000
    -1.8171652989876692    3.1474226235977323    0.0000000000000000
     0.0000000000000000    0.0000000000000000  -42.2167428191099958
 Zr  Se  Mg  Cl 
   2   2   1   2
Cartesian
  2.0223792161075749  1.3230864564931637 -19.3588483374326259
  2.0223792161075749  1.3230864564931637 -16.6126058287490430
  0.2052139171199059  2.3722273310257407 -20.9714544236312186
  0.2052139171199059  2.3722273310257407 -14.9999999999999982
  0.1915100945664388  0.6148125634508774 -25.8438369543658659
  2.0086753935541077  1.6639534379834549 -24.4709310896217289
  0.1915100945664393  2.7130943125160325 -27.2167428191099958
