S  Zr Ge I 
 1.0000000000000000
     4.2478808458331407    0.0000000000000000    0.0000000000000000
    -2.1239404217183520    3.6792744587816459    0.0000000000000000
    -0.0000000000000000    0.0000000000000000   40.6960188576274220
 S   Zr  Ge  I  
   2   2   1   2
Cartesian
  1.2479183468928279  0.9128973192500068 15.0000000000000000
  1.2482071115017244  3.3652852145588312 18.3278617161116202
  1.2479894376653131  0.9128137613547838 17.6238086027417182
  1.2481360095979974  3.3653687754538923 15.7040911197024684
  0.7581961645630002  0.0672760674026986 23.9512429636461803
  2.8821365878789771  1.2937008869965800 25.6960188576274220
  0.7581961653618126  2.5201257065904614 22.2064670696649280
