Mo S  Ti Cl
 1.0000000000000000
     3.2315471284837161    0.0000000000000000    0.0000000000000000
    -1.6157735642418580    2.7986019067935528    0.0000000000000000
     0.0000000000000000    0.0000000000000000   40.2852371944087935
 Mo  S   Ti  Cl 
   1   2   1   2
Cartesian
  0.2732366957829550  0.9757597487606749 16.5635563231757601
  1.8890102600248131  1.9086270510251926 18.1271126463515202
  1.8890102600248131  1.9086270510251926 15.0000000000000018
  0.2118493808021176  1.2933094339089886 23.6993775036555903
  1.8276229450439752  2.2261767361735059 25.2852371944088006
  1.8276229450439752  2.2261767361735059 22.1135180672414293
