Ge Br Ge Br Se Zr
 1.0000000000000000
     4.2863580768933298   -0.0506467540195987    0.0000000000000001
    -2.0994017196768162    3.7383182598180378    0.0000000000000001
     0.0000000000000020   -0.0000000000000000   35.3794909095427244
 Ge  Br  Ge  Br  Se  Zr 
   1   1   1   1   2   2
Cartesian
  0.3615088534589901  2.5896017838555281 17.3501422193768597
 -1.8014365426762537  1.3747702814775640 20.3794909095427244
 -1.7968522801072542  1.3770988088163159 18.0293662204716583
 -3.9248905203296576  2.6375316862790905 14.9999999999999982
  4.1184888553848520 -0.2970119931738494 15.2422473075225309
  4.1479455819853293  2.1778051377077885 18.9016744084808543
  4.1184863068379123 -0.2970487140687093 18.0161433319325290
  4.1479481432818117  2.1778418359264431 16.1279980632083131
