Mg Cl Pd S 
 1.0000000000000000
     3.6131602065831001    0.0000000000000000    0.0000000000000000
    -1.8065801032915503    3.1290885268439945    0.0000000000000000
     0.0000000000000000    0.0000000000000000   38.7133219116366831
 Mg  Cl  Pd  S  
   1   2   1   2
Cartesian
  0.5430946587129027  0.8721787283125749 16.3729058647441335
  2.3496747620044527  1.9152082372605732 17.7458117294882705
  0.5430946587129033  2.9582377462085714 15.0000000000000018
  0.6351948093223752  0.8153277528387467 22.4682500782321526
  2.4417749126139250  1.8583572617867445 23.7133219116366831
  0.6351948093223749  2.9013867707347423 21.2231782448276221
