Ge Br Ge Br S  Zr
 1.0000000000000000
     4.2212737500971969   -0.0506467540195987    0.0000000000000001
    -2.0668595563159271    3.6818484108625809    0.0000000000000001
     0.0000000000000022   -0.0000000000000000   39.2894960975920284
 Ge  Br  Ge  Br  S   Zr 
   1   1   1   1   2   2
Cartesian
  1.3796735224492414  3.2387746037374439 21.2601474074261603
 -0.7506516058199181  2.0428051771478244 24.2894960975920213
 -0.7461365244765169  2.0450974718396684 21.9393714085209552
 -2.8416413838915644  3.2867458276238124 18.9100051880492970
  3.6222582727579584 -0.6947714318309853 14.9999999999999982
  3.6517246130243692  1.7424495923321042 18.3278617161116202
  3.6223279240435335 -0.6948553206801220 17.6238086027417182
  3.6516549507129672  1.7425334842952467 15.7040911197024666
