Se Ir Si Se
 1.0000000000000000
     3.4581805861362840   -0.0000000000000001    0.0000000000000000
    -1.7288984253237820    3.0003730464967764    0.0000000000000000
    -0.0000000000000012   -0.0000000000000022  -41.4521061772836319
 Se  Ir  Si  Se 
   2   2   1   2
Cartesian
  1.3618129455181285  0.8450745183256447 -19.7747437366469150
  1.3616825239310204  2.8444924154422777 -15.0000000000000018
  1.3614848962984467  0.8474499612705551 -16.3844902057766575
  1.3620106768472811  2.8421149642671737 -18.3902226541935008
  0.6015507744079779 -0.1541676748323135 -25.0124781194237222
  2.3312219831240837  0.8451529321974012 -26.4521061772836390
  0.6017313999425905  1.8453417618290613 -23.5728530904680795
