Ge Se Pd Se
 1.0000000000000000
     3.7005367487208511    0.0000000000000000    0.0000000000000000
    -1.8502683743604256    3.2047588320301292    0.0000000000000000
     0.0000000000000000    0.0000000000000000  -37.6836342963229853
 Ge  Se  Pd  Se 
   1   1   1   2
Cartesian
  2.2437408452621388  1.7054906132427288 -21.2362745626093741
  0.3934724709017133  2.7737435572527716 -22.6836342963229853
  0.6275124905680136  0.1631209419604970 -16.3130585243314101
  2.4777808649284387  1.2313738859705399 -14.9999999999999982
  0.6275124905680136  2.2996268299805829 -17.6261168079604857
