Ti I  Mg Br
 1.0000000000000000
     3.8262285853781033    0.0000000000000000    0.0000000000000000
    -1.9131142926890519    3.3136111556236338    0.0000000000000000
     0.0000000000000000    0.0000000000000000   40.4023638216607210
 Ti  I   Mg  Br 
   1   2   1   2
Cartesian
 -0.3487931495473851  1.2367675300022121 16.8143657812576173
  1.5643211431416661  2.3413045818767571 18.6287315661405373
  1.5643211431416661  2.3413045818767571 15.0000000000000000
  0.4333949771690810  0.8982721688229447 23.8953381732449550
  2.3465092698581307  2.0028092206974906 25.4023638216607139
  0.4333949771690808  3.1073462725720362 22.3883125248291925
