S  Cd In Te In
 1.0000000000000000
     4.3483486612798199   -0.0000000000000000    0.0000000000000000
    -2.1741743294073697    3.7672461692775583    0.0000000000000000
    -0.0000000000000000    0.0000000000000000  -42.5628821633105403
 S   Cd  In  Te  In 
   2   2   1   2   1
Cartesian
  1.5787703784302911  0.1886041362063704 -27.5628821633105403
  1.5790924116554022  2.6988587638574266 -24.3254737594631862
  1.5783952557386629  0.1886751670142327 -24.7495323177478710
  1.5794677627201419  2.6987877557651414 -27.1389312706509713
  0.6976951354431037  3.5907627197840650 -16.3745681905474605
  2.8718758920460417  2.3346209578277142 -20.5577319829025171
  0.6976390313974874  1.0789509498201493 -15.0000000000000000
  0.6976416256631548  3.5909588562672488 -19.1831607748034862
