Sn Te Al Te
 1.0000000000000000
     4.1440417798885782   -0.0000000000000000    0.0000000000000000
    -2.0720208899442891    3.5888454557275895    0.0000000000000000
    -0.0000000000000000    0.0000000000000000   40.3635102892090316
 Sn  Te  Al  Te 
   1   1   2   2
Cartesian
  1.9592516993221467  1.8769194631866724 16.6861605505646402
 -0.1127691906221426  3.0732012817625352 15.0000000000000000
  2.3522243782073504  1.4658435255651634 21.5101000587083035
  2.3522243782073504  1.4658435255651634 24.0839184397721020
  0.2802034882630613  2.6621253441410260 20.2305082092714485
  0.2802034882630612  2.6621253441410260 25.3635102892090316
