Ca Br I  Cu
 1.0000000000000000
     4.1479165317168878    0.0000000000000000    0.0000000000000000
    -2.0739582646654622    3.5922010871779602    0.0000000000000000
     0.0000000000000000    0.0000000000000000   40.8912288613338717
 Ca  Br  I   Cu 
   1   2   2   2
Cartesian
 -0.3598863986181965  1.6235067073778637 16.7571598031843862
  1.7140718676379076  2.8209070697705170 18.5143196063686446
  1.7140718676379076  2.8209070697705170 15.0000000000000000
  1.2462417060973483  0.8557148135134705 22.0354259306938722
  1.2462416861530869  3.2505155502727812 25.8912288613338717
  1.2462417060973485  0.8557148135134709 24.6567249624538718
  1.2462416861530867  3.2505155502727807 23.2725250851738679
