Hf Te S  Zn
 1.0000000000000000
     3.9159738475004624    0.0000000000000000    0.0000000000000000
    -1.9579869226299005    3.3915886037134011    0.0000000000000000
    -0.0000000000000000    0.0000000000000000   40.2742316433339198
 Hf  Te  S   Zn 
   1   2   2   2
Cartesian
 -0.7046531451571065  1.5929706840688675 16.8494380278571079
  1.2533337789665679  2.7235002186400012 18.6988761198817670
  1.2533337789665679  2.7235002186400012 15.0000000000000000
  1.1315796009880639  0.6388399701755507 22.1534890014308417
  1.1316502379414910  2.8997018386338906 25.2742316433339198
  1.1314527783698933  0.6388883624020084 24.7349490904401890
  1.1317770755772287  2.8996535753840931 22.6929174059101406
