Zr I  Pt Se
 1.0000000000000000
     3.7886608423634374   -0.0000000000000000    0.0000000000000000
    -1.8943304211817187    3.2810765358100875    0.0000000000000000
     0.0000000000000000    0.0000000000000000   40.2535944904913663
 Zr  I   Pt  Se 
   1   2   1   2
Cartesian
 -0.3293057102778554  1.2650550178285749 16.9391452359630961
  1.5650247109038635  2.3587471964319375 18.8782904725522300
  1.5650247109038635  2.3587471964319375 15.0000000000000000
  0.3804254049788740  0.8702554814409762 23.9437857686836182
  2.2747558261605927  1.9639476600443388 25.2535944904913663
  0.3804254049788738  3.0576398386477015 22.6339770407862346
