Cd F  Zn Cl
 1.0000000000000000
     3.5554918103394351   -0.0000000000000000    0.0000000000000000
    -1.7777459051697155    3.0791462307014790    0.0000000000000000
     0.0000000000000002   -0.0000000000000000   38.2866204677489819
 Cd  F   Zn  Cl 
   1   2   1   2
Cartesian
  0.5484495594455973  0.8686609769162225 16.0171616820291440
  2.3261954646153136  1.8950430538167153 17.0343233640583236
  0.5484495594455956  2.9214251307172083 15.0000000000000000
  0.6205043818876186  0.6890412159860084 21.9191534791668658
  2.3982502870573361  1.7154232928865010 23.2866204677489819
  0.6205043818876201  2.7418053697869933 20.5516864905847285
