Ga Te Ga S  Zr
 1.0000000000000000
     4.1719017391037809    0.0000000000000000    0.0000000000000000
    -2.0859508712018595    3.6135105864134069    0.0000000000000000
    -0.0000000000000000    0.0000000000000000   42.2430866906867024
 Ga  Te  Ga  S   Zr 
   1   2   1   2   2
Cartesian
  0.7371515716671211  3.2200087971015465 18.7270307746498297
  2.8231530248292835  2.0154816118551917 15.0000000000000000
  0.7371406262430080  0.8110140610429378 19.9886537406659137
  0.7371912376961969  3.2199974438353207 16.2616350472053242
  1.3124566056172422  0.3044826405856941 23.9152249745750822
  1.3127402033955526  2.7130362075911298 27.2430866906867024
  1.3125264248349655  0.3044005762161154 26.5390335773168005
  1.3126703732456848  2.7131182749069280 24.6193160942775506
