Br Cu Se Ti
 1.0000000000000000
     3.9971732947073084    0.0000000000000000    0.0000000000000000
    -1.9985866450704055    3.4633965169883423    0.0000000000000000
     0.0000000000000000    0.0000000000000000   40.5433803295278423
 Br  Cu  Se  Ti 
   2   2   2   2
Cartesian
  1.4312911283911176  0.9095999716199200 15.0000000000000000
  1.4322199979295300  3.2175703611330340 18.6331282326220524
  1.4309397475782930  0.9098303578836289 17.4857902901367517
  1.4325692485396182  3.2173408111593789 16.1476785051133049
  1.1062038949614890  1.0586008993042162 21.9840488716605691
  1.1063108683722294  3.3669476432035603 25.5433803295278494
  1.1060115196979008  1.0586680747213730 24.6173670077292215
  1.1065033245099571  3.3668804942835573 22.9101334950753284
