S  Ti Cd Cl
 1.0000000000000000
     3.9087584045833630   -0.0000000000000000    0.0000000000000000
    -1.9543792011726935    3.3859297993326489    0.0000000000000000
     0.0000000000000000    0.0000000000000000   39.9718528213296125
 S   Ti  Cd  Cl 
   2   2   1   2
Cartesian
  1.2000495824804749  0.7649646645857953 15.0000000000000000
  1.2002602249311114  3.0216561078242421 18.2247483793411575
  1.1999812145159443  0.7649723642953785 17.4814467457056075
  1.2003286202164787  3.0216484116471869 15.7433429186812148
  0.6989570268707779 -0.1104018354235745 23.5339814047173199
  2.6533362295354550  1.0182414310206422 24.9718528213296125
  0.6989570276167703  2.1468846974648592 22.0961099881050487
