Sn Se Hf Se
 1.0000000000000000
     3.8397047204379353   -0.0000000000000000    0.0000000000000000
    -1.9198523602189677    3.3252818309302778    0.0000000000000000
     0.0000000000000000    0.0000000000000000   38.1716980409951248
 Sn  Se  Hf  Se 
   1   1   1   2
Cartesian
  2.2068194266732877  1.5376356401185802 16.5586206887278209
  0.2869670664543204  2.6460629170953398 15.0000000000000000
  0.5698677721866017  0.4766676630707435 21.5958090202156221
  2.4897201324055684  1.5850949400475030 23.1716980409951248
  0.5698677721866015  2.6935222170242623 20.0199199994384465
