Hf Te Sn Se
 1.0000000000000000
     3.8870857453951198    0.0000000000000000    0.0000000000000000
    -1.9435428726975599    3.3663150022005439    0.0000000000000000
     0.0000000000000000    0.0000000000000000  -40.7138292665104089
 Hf  Te  Sn  Se 
   1   2   1   2
Cartesian
 -0.3283463827334451  1.2333081769207956 -16.8494380920246627
  1.6151964899641147  2.3554131776543104 -15.0000000000000036
  1.6151964899641147  2.3554131776543104 -18.6988761198817706
  0.8031797153828921  0.9856059930107126 -24.1208982469361430
  2.7467225880804520  2.1077109937442269 -22.5279672273619411
  0.8031797153828921  3.2298159944777414 -25.7138292665104089
