In S  Pt Te
 1.0000000000000000
     3.9651776391672220    0.0000000000000000    0.0000000000000000
    -1.9825888195836110    3.4339445660368204    0.0000000000000000
     0.0000000000000000    0.0000000000000000   41.9307211283111556
 In  S   Pt  Te 
   2   2   1   2
Cartesian
  2.2009664096429331  1.4894729347593687 16.1777227309346578
  2.2009664096429331  1.4894729347593687 18.9966802391880591
  0.2183775900593225  2.6341211234383088 15.0000000000000000
  0.2183775900593225  2.6341211234383088 20.1744029701158176
  0.0124808226563844  0.6737580430613398 25.5435068987576450
  1.9950696422399947  1.8184062317402798 26.9307211283111556
  0.0124808226563844  2.9630544204192195 24.1562926701606173
