Ga S  Zr S 
 1.0000000000000000
     3.6637996656793992    0.0000000000000000    0.0000000000000000
    -1.8318998328396996    3.1729435848552927    0.0000000000000000
    -0.0000000000000000    0.0000000000000000   41.5407094796835139
 Ga  S   Zr  S  
   2   2   1   2
Cartesian
  2.0038393638964251  1.4514928008869754 16.0940275853641523
  2.0038393638964251  1.4514928008869754 18.5727461466075034
  0.1719395310567258  2.5091406625054060 15.0000000000000000
  0.1719395310567258  2.5091406625054060 19.6667737319714995
 -0.0923404090931125  0.6527811935375188 25.0948270369394493
  1.7395594237465866  1.7104290551559493 26.5407094796835139
 -0.0923404090931126  2.7680769167743797 23.6489445941953207
