Tl Se Tl Se Zn
 1.0000000000000000
     4.1522215010902457    0.0000000000000000    0.0000000000000000
    -2.0761107493811810    3.5960925772820511    0.0000000000000000
     0.0000000000000000    0.0000000000000000   42.8087007082660875
 Tl  Se  Tl  Se  Zn 
   1   2   1   2   2
Cartesian
  0.8422000594189922  3.1052685628221930 19.1787999937282194
  2.9181648025044993  1.9060323438775300 15.0000000000000000
  0.8420977170408004  0.7073926398842170 20.4629125901574405
  0.8419517056227688  3.1056789325511689 16.2841092530494400
  1.2077994858699035  0.0739540742915953 24.3953971175751079
  1.2079067646267547  2.4712132300141278 27.8087007082660875
  1.2076970290816129  0.0740099962049761 27.0510942991850243
  1.2080091914596218  2.4711573060799230 25.1533787196633440
