Cr S  Pt O 
 1.0000000000000000
     3.0977043555209347    0.0000000000000000    0.0000000000000000
    -1.5488521777604674    2.6826906652948317    0.0000000000000000
     0.0000000000000000    0.0000000000000000   38.7484888703194983
 Cr  S   Pt  O  
   1   2   1   2
Cartesian
 -0.5940324730918738  1.2130320093351388 16.4740845698072640
  0.9548197046685930  2.1072622311000826 17.9481691396145280
  0.9548197046685930  2.1072622311000826 15.0000000000000000
  0.3644394210201524  0.8875847623697931 22.8055710928660282
  1.9132915987806196  1.7818149841347370 23.7484888703194983
  0.3644394210201524  2.6760452058996811 21.8626533154125582
