C  H  B  N 
 1.0000000000000000
     2.5245999402020232   -0.0000000000000000    0.0000000000000000
    -1.2622999700986257    2.1863676826057206    0.0000000000000000
     0.0000000000000011    0.0000000000000019   36.6409668898478174
 C   H   B   N  
   2   2   1   1
Cartesian
 -0.3182815675929616  2.3763360605995536 16.1102205028468077
  0.9440184023048127  1.6475468330643142 16.5689024224138493
  0.9440184025056636  0.1899683779938335 15.0000000000000000
  0.9440184023048128  1.6475468330643142 17.6791259257116131
  0.4875366756448886  1.9495459486223390 21.6409668898478138
  1.7498366457451051  1.2207567210870987 21.6409668898478138
