Sn Se Bi O 
 1.0000000000000000
     3.9415667461285331   -0.0000000000000000    0.0000000000000000
    -1.9707833730642665    3.4134969328592781    0.0000000000000000
     0.0000000000000000    0.0000000000000000   38.8242999150445414
 Sn  Se  Bi  O  
   1   1   2   2
Cartesian
  2.3868894162905292  1.6640241119835011 16.5586206887278209
  0.4161060432262629  2.8018564229365932 15.0000000000000000
  2.4808275623705343  1.3259341868620345 20.5437346678529948
  2.4808275623705343  1.3259341868620345 23.6963508712957704
  0.5100441893062674  2.4637664978151266 20.4157855223030538
  0.5100441893062673  2.4637664978151266 23.8242999150445414
