Pb Cl Ge Br Ge Br
 1.0000000000000000
     4.2136633462910114   -0.0506467540195987    0.0000000000000001
    -2.0630543556110528    3.6747558737925479    0.0000000000000001
     0.0000000000000023   -0.0000000000000000   39.8413543343603465
 Pb  Cl  Ge  Br  Ge  Br 
   1   2   1   1   1   1
Cartesian
  1.9121268122454491  1.2173341520689813 16.7004028302812522
  4.0335509245691057  2.4084882739867646 18.4008056605625043
  4.0335509245691057  2.4084882739867646 15.0000000000000000
  2.3456385491025387  1.1777704169772991 21.8120056441944818
  0.2191277560028678 -0.0158299582650758 24.8413543343603465
  0.2236347478854360 -0.0135422143449464 22.4912296452892804
 -1.8680659369846022  1.2257468307838142 19.4618634248176186
