Zr Cl Ge S 
 1.0000000000000000
     3.4268366160902000    0.0000000000000000    0.0000000000000000
    -1.7134183080451000    2.9677275641528142    0.0000000000000000
    -0.0000000000000000    0.0000000000000000   40.0619296865606955
 Zr  Cl  Ge  S  
   1   2   1   2
Cartesian
 -0.3743407731478177  1.1062752047761866 16.7078992199188079
  1.3390775348972821  2.0955177261604576 18.4157984398376016
  1.3390775348972821  2.0955177261604576 15.0000000000000000
  0.5196334124064927  0.8144418715082105 23.6649205607242017
  2.2330517204515932  1.8036843928924817 25.0619296865606955
  0.5196334124064927  2.7929269142767530 22.2679114348875160
