Ga S  Hf S 
 1.0000000000000000
     3.6487545794823486    0.0000000000000000    0.0000000000000000
    -1.8243772897411743    3.1599141580065204    0.0000000000000000
    -0.0000000000000000    0.0000000000000000   41.5465351114212638
 Ga  S   Hf  S  
   2   2   1   2
Cartesian
  1.9963690725153573  1.4469425541753695 16.0940275853641523
  1.9963690725153573  1.4469425541753695 18.5727461466075034
  0.1719917827741831  2.5002472735108761 14.9999999999999964
  0.1719917827741831  2.5002472735108761 19.6667737319714959
 -0.0929470517548146  0.6501043087764766 25.0984308094300701
  1.7314302379863595  1.7034090281119836 26.5465351114212638
 -0.0929470517548146  2.7567137474474905 23.6503265074392104
