Hg Se Sn I 
 1.0000000000000000
     4.5198391620035725   -0.0000000000000000    0.0000000000000000
    -2.2599195810017867    3.9142955353148627    0.0000000000000000
     0.0000000000000000    0.0000000000000000   37.6770065123430840
 Hg  Se  Sn  I  
   1   1   1   2
Cartesian
  3.0079866834610316  1.5408712011100767 15.3939973822751668
  0.7480671024592456  2.8456363795483646 15.0000000000000000
  0.6132578029014557  0.5593627992422985 20.8311443965397842
  2.8731773839032422  1.8641279776805861 22.6770065123430840
  0.6132578029014554  3.1688931561188736 18.9852822807364987
