Pd Se Zn
 1.0000000000000000
     4.0382035629506543    0.0000000000000000    0.0000000000000000
    -2.0191017803113849    3.4973501463660419    0.0000000000000000
    -0.0000000000000000    0.0000000000000000  -39.3951141520009571
 Pd  Se  Zn 
   1   4   2
Cartesian
 -0.6453113494044793  1.6382280956712441 -23.1969209414538113
  1.3737904324588284  2.8040114777932574 -21.9987277308964764
  1.3737904324588284  2.8040114777932574 -24.3951141520009500
  1.3412513554533714  1.0316904540287772 -18.4133035906909797
  1.3413556884102000  3.3631250539356170 -15.0000000000000000
  1.3411517120775514  1.0317448404239391 -15.7576064090810632
  1.3414553026531577  3.3630706655751190 -17.6553219886027435
