Mo Te Ni Se
 1.0000000000000000
     3.5445699958563788    0.0000000000000000    0.0000000000000000
    -1.7722849979281894    3.0696876619037257    0.0000000000000000
     0.0000000000000000    0.0000000000000000  -39.9755137518811310
 Mo  Te  Ni  Se 
   1   2   1   2
Cartesian
 -0.3295466576623015  1.1094184739146418 -16.8050999999999995
  1.4427383402658875  2.1326476945492168 -15.0000000000000000
  1.4427383402658875  2.1326476945492168 -18.6101999999999990
  0.6651978699482605  1.0555937993339159 -23.7301728084029797
  2.4374828678764495  2.0788230199684907 -22.4848318643861695
  0.6651978699482604  3.1020522406030659 -24.9755137518811381
