Al Se Zr S 
 1.0000000000000000
     3.7299964797165996   -0.0000000000000000    0.0000000000000000
    -1.8649982398582998    3.2302717074611023    0.0000000000000000
    -0.0000000000000000    0.0000000000000000   41.8063642518859169
 Al  Se  Zr  S  
   2   2   1   2
Cartesian
  2.0716242574765720  1.4412036180028100 16.1674793328362689
  2.0716242574765720  1.4412036180028100 18.7553318157724647
  0.2066260176182719  2.5179608538231775 15.0000000000000000
  0.2066260176182720  2.5179608538231775 19.9228111486087727
  0.0800592235056737  0.5761576547490603 25.3604818091418522
  1.9450574633639732  1.6529148905694275 26.8063642518859169
  0.0800592235056735  2.7296721263897945 23.9145993663977272
