Te Zn Hg I 
 1.0000000000000000
     4.3582279860202462   -0.0000000000000000    0.0000000000000000
    -2.1791139917736269    3.7748616853559849    0.0000000000000000
    -0.0000000000000000    0.0000000000000000   41.1761972858718295
 Te  Zn  Hg  I  
   2   2   1   2
Cartesian
  1.2880044798239454  0.6690875340484745 15.0000000000000000
  1.2881123624372244  3.1853809748242057 18.7597473661473551
  1.2878693358370279  0.6691746103321712 17.8109584950062683
  1.2882472740531075  3.1852935320148159 15.9491402070049269
  0.7280493688715037  0.1829088484568239 24.4329467699620189
  2.9071633622937929  1.4411960769088190 26.1761972858718295
  0.7280493696958348  2.6994833053608143 22.6896962540522011
