Hf Se Sn S 
 1.0000000000000000
     3.7342779760216001   -0.0000000000000000    0.0000000000000000
    -1.8671389880108000    3.2339795920274423    0.0000000000000000
     0.0000000000000000    0.0000000000000000   39.5921824606019186
 Hf  Se  Sn  S  
   1   2   1   2
Cartesian
  0.5475760239964463  0.8335657837401184 16.5758890207771756
  2.4147150120072456  1.9115589810825990 18.1517780415566747
  0.5475760239964462  2.9895521784250803 15.0000000000000000
  0.5834182995036291  0.4615191508526192 23.1146110578174984
  2.4505572875144290  1.5395123481950996 24.5921824606019186
  0.5834182995036291  2.6175055455375804 21.6370396550330746
