Zr Te Se Zn
 1.0000000000000000
     3.9989181433711445    0.0000000000000000    0.0000000000000000
    -1.9994590705216302    3.4633279750118557    0.0000000000000000
     0.0000000000000000    0.0000000000000000   40.4680611440349480
 Zr  Te  Se  Zn 
   1   2   2   2
Cartesian
 -0.3731615232490674  1.7121895495798551 16.8615645620742072
  1.6262975488244855  2.8666322079171400 18.7231291241485955
  1.6262975488244855  2.8666322079171400 14.9999999999999982
  1.0963150518580753  0.7164748377766045 22.0547575533439648
  1.0964183698255803  3.0252292758067361 25.4680611440349480
  1.0962163778568217  0.7165286951017054 24.7104547349538848
  1.0965170149773886  3.0251754165354181 22.8127391554322045
