Cl Cd I  Pt
 1.0000000000000000
     3.9473870691524446    0.0012757779865283    0.0000000000000000
    -1.9725797337692972    3.4255611833062760    0.0000000000000000
     0.0000000000000031    0.0000000000000000   42.1175837955308836
 Cl  Cd  I   Pt 
   2   2   2   2
Cartesian
  1.3792759684214848 -0.3961270765860884 15.0000000000000000
  1.3917165147698161  4.1487639911128698 20.5111542448488713
  1.3920024057349367  1.8651420107207106 19.0920396605243425
  1.3790482163214215  1.8874931968570019 16.4189511839095843
 -1.0325676085886142  1.5503797471756369 22.7210968180969886
  2.9146661630629564  1.5518262172237511 27.1175837955308765
  0.9405283207986317  0.4089690044449861 25.6286921015711080
  0.9413040985701241  2.6930665965938188 24.2091809370909914
