Ba Cl Sn I 
 1.0000000000000000
     4.4764985700614375    0.0000000000000000    0.0000000000000000
    -2.2382492850307187    3.8767614816779190    0.0000000000000000
     0.0000000000000000    0.0000000000000000   41.4107475988499019
 Ba  Cl  Sn  I  
   1   2   1   2
Cartesian
  0.2241405767545410  1.6532366004220611 16.6919307837616273
  2.4623898617852600  2.9454904276480338 18.3838615675232617
  2.4623898617852600  2.9454904276480338 15.0000000000000000
  0.3326944475061026  1.6742809413033517 24.3968928022690932
  2.5709437325368212  2.9665347685293244 26.4107475988499019
  2.5709437325368212  2.9665347685293244 22.3830380056882916
