Ti I  S  Ti
 1.0000000000000000
     3.8434205697281212   -0.0000000000000000    0.0000000000000000
    -1.9217102837450724    3.3293455745197367    0.0000000000000000
     0.0000000000000000    0.0000000000000000   40.4150385612359173
 Ti  I   S   Ti 
   1   2   2   2
Cartesian
 -0.5312697560411490  1.4041618257867707 16.8143657812576208
  1.3904405291959072  2.5139436839600169 18.6287315661405408
  1.3904405291959072  2.5139436839600169 15.0000000000000000
  1.2912338973599833  0.6968997201779303 22.1902901818947562
  1.2914410187761893  2.9158782917606367 25.4150385612359173
  1.2911666722173705  0.6969072912132279 24.6717369276003673
  1.2915082707829504  2.9158707241988333 22.9336331005759746
