Pb S  Zn Br
 1.0000000000000000
     3.8736102017693512   -0.0000000000000000    0.0000000000000000
    -1.9368051008846758    3.3546448390908230    0.0000000000000000
    -0.0000000000000000    0.0000000000000000   37.9769706035087680
 Pb  S   Zn  Br 
   1   1   1   2
Cartesian
  2.1348151322715312  1.3383937612927757 16.4391638847389459
  0.1980100313868560  2.4566087076563834 15.0000000000000000
  0.6930975160083892  0.1789572704479399 21.4943719981771473
  2.6299026168930637  1.2971722168115472 22.9769706035087680
  0.6930975160083894  2.4153871631751547 20.0117733928455444
