Pb O  Pd Se
 1.0000000000000000
     3.6638857224322257   -0.0000000000000000    0.0000000000000000
    -1.8319428612161128    3.1730181121894079    0.0000000000000000
    -0.0000000000000000    0.0000000000000000   37.1363432358230696
 Pb  O   Pd  Se 
   1   1   1   2
Cartesian
  2.0234109973825825  1.1671812945458284 15.9428404019710133
  0.1914681361664702  2.2248539986089644 15.0000000000000000
  0.7109591510929205  0.2988215626314192 20.8232847114916595
  2.5429020123090331  1.3564942666945550 22.1363432358230696
  0.7109591510929205  2.4141669707576909 19.5102264278625839
