Hf I  Ru Br
 1.0000000000000000
     3.7767777895576442   -0.0000000000000000    0.0000000000000000
    -1.8883888947788223    3.2707855102057586    0.0000000000000000
     0.0000000000000000    0.0000000000000000   40.2530936804046533
 Hf  I   Ru  Br 
   1   2   1   2
Cartesian
 -0.3297140593604268  1.2333432194702818 16.9476853944779791
  1.5586748354183950  2.3236050562055346 18.8953707810581477
  1.5586748354183950  2.3236050562055346 15.0000000000000000
  0.3216193752359673  0.9215562868383264 23.9362445264550523
  2.2100082700147889  2.0118181235735797 25.2530936804046533
  0.3216193752359672  3.1020799603088332 22.6193953725054477
