Ba Cl Ag
 1.0000000000000000
     4.4668699990829799    0.0000000000000000    0.0000000000000000
    -2.2334349982847339    3.8764935453134255    0.0000000000000000
    -0.0000000000000000    0.0000000000000000   40.3216208402505245
 Ba  Cl  Ag 
   1   4   2
Cartesian
 -0.4486021325812677  1.7358842317425465 16.6919307837616273
  1.7848328673791409  3.0280487468470212 18.3838615675232617
  1.7848328673791409  3.0280487468470212 15.0000000000000000
  1.3180461939176318  0.7712815089575445 22.0347642985319254
  1.3134663059961937  3.3502846220035196 25.3216208402505245
  1.3134059724196805  0.7734770541013001 25.0122664908642669
  1.3181428879903698  3.3480700333570463 22.3428127588681917
