Se Zr S  Zr
 1.0000000000000000
     4.2604092263380284   -0.0000000000000000    0.0000000000000000
    -2.1302046107354005    3.6907312571697735    0.0000000000000000
    -0.0000000000000000    0.0000000000000000   40.2676168626246778
 Se  Zr  S   Zr 
   2   2   2   2
Cartesian
  1.1573376594798479  1.1046982849992808 15.0000000000000000
  1.1576138336901809  3.5646793369433190 18.6594271009583252
  1.1573355569835519  1.1046617594438144 17.7738960244099999
  1.1576159491227742  3.5647158401114107 15.8857507556857840
  1.4806784388819327  0.9814632279529311 21.9397551465130576
  1.4809680559725500  3.4414875510414160 25.2676168626246778
  1.4807497393241711  0.9813794098689208 24.5635637492547758
  1.4808967443662402  3.4415713721346064 22.6438462662155260
