Zr Se Pd Se
 1.0000000000000000
     3.6652965201571228    0.0000000000000000    0.0000000000000000
    -1.8326482600785614    3.1742398988587706    0.0000000000000000
     0.0000000000000000    0.0000000000000000  -42.0828740868617501
 Zr  Se  Pd  Se 
   2   2   1   2
Cartesian
  2.0722593796004136  1.3906375692516502 -19.3588483374326259
  2.0722593796004136  1.3906375692516502 -16.6126058287490395
  0.2396111195218522  2.4487175355379067 -20.9714544236312186
  0.2396111195218522  2.4487175355379067 -14.9999999999999964
  0.1988299320677443  0.5870629024525605 -25.7698158032326710
  2.0314781921463054  1.6451428687388174 -24.4567572789012608
  0.1988299320677443  2.7032228350250738 -27.0828740868617466
