Ge F  S  Hf
 1.0000000000000000
     4.1991565538297273   -0.0000000000000000    0.0000000000000000
    -2.0995782757301669    3.6371088798765348    0.0000000000000000
     0.0000000000000012    0.0000000000000022   40.7440801613722812
 Ge  F   S   Hf 
   2   2   2   2
Cartesian
  1.2728809748911121  0.9879784753334945 16.7809067055787082
  1.2728809793486180  3.4127177285845165 17.3739865908562336
  1.2728809748911121  0.9879784753334939 14.9999999999999982
  1.2728809793486180  3.4127177285845174 19.1548933276439897
  1.6206139606332619  1.0578115031505102 22.4185935147899080
  1.6209421414525678  3.4820292071675181 25.7440801613722812
  1.6207425318936592  1.0576855380785382 25.0231746500881940
  1.6208135601295832  3.4821551775016908 23.1395898602339614
