Pd Se Br Cu
 1.0000000000000000
     3.9768703338012132    0.0000000000000000    0.0000000000000000
    -1.9884351657716992    3.4448847189310281    0.0000000000000000
    -0.0000000000000000    0.0000000000000000   39.5153191216048114
 Pd  Se  Br  Cu 
   1   2   2   2
Cartesian
 -0.4118427710104459  1.5377879735989206 16.1981932105471387
  1.5765923962664632  2.6860828799092631 17.3963864211044772
  1.5765923962664632  2.6860828799092631 15.0000000000000000
  1.1376948241094191  0.7741727757010817 20.8821908889827554
  1.1386189748517148  3.0698071010172843 24.5153191216048114
  1.1373452280755063  0.7744019305539578 23.3679811791195107
  1.1389664515028932  3.0695787779845052 22.0298693940960604
