Ni S  Pb O 
 1.0000000000000000
     3.3779290260803636    0.0000000000000000    0.0000000000000000
    -1.6889645130401818    2.9253723487664223    0.0000000000000000
     0.0000000000000000    0.0000000000000000   38.0267443754016199
 Ni  S   Pb  O  
   1   2   1   2
Cartesian
  0.4832102688843143  0.6836859169725794 16.1754339282252602
  2.1721747819244963  1.6588100332280533 17.3508678564505132
  0.4832102688843143  2.6339341494835278 15.0000000000000018
  0.6355010137039729  0.6966215970835845 21.9681252192569403
  2.3244655267441545  1.6717457133390585 23.0267443754016199
  0.6355010137039729  2.6468698295945328 20.9095060631122607
