Pd Se S  Ti
 1.0000000000000000
     3.9595051921488351   -0.0000000000000000    0.0000000000000000
    -1.9797525949554293    3.4298778065248001    0.0000000000000000
     0.0000000000000000    0.0000000000000000   39.2800070124257559
 Pd  Se  S   Ti 
   1   2   2   2
Cartesian
 -0.3938443174108905  1.5291048924649981 16.1981932105471387
  1.5859082790365231  2.6723974946399314 17.3963864211044772
  1.5859082790365231  2.6723974946399314 15.0000000000000000
  1.3312325963156548  0.8981917244661908 21.0552586330845948
  1.3314459734939832  3.1841741151417216 24.2800070124257559
  1.3311633407407339  0.8981995241149081 23.5367053787902059
  1.3315152567444426  3.1841663190713834 21.7986015517658132
