Se Ti S  Zr
 1.0000000000000000
     4.1185119135236405    0.0000000000000000    0.0000000000000000
    -2.0592559544092603    3.5681665950817436    0.0000000000000000
    -0.0000000000000000    0.0000000000000000   40.1776262293275224
 Se  Ti  S   Zr 
   2   2   2   2
Cartesian
  1.1708373505844001  0.9919133589971387 14.9999999999999982
  1.1709475712914057  3.3700891471421257 18.5593314578672803
  1.1706391355567944  0.9919825665159236 17.6333181360686524
  1.1711458696481749  3.3700199669220510 15.9260846234147575
  1.3274293129842318  0.8468058627286442 21.8497645132158951
  1.3277092840796596  3.2251357927881203 25.1776262293275153
  1.3274982386918808  0.8467248281404856 24.4735731159576133
  1.3276403475797705  3.2252168302855275 22.5538556329183635
