Sn S  Sn S 
 1.0000000000000000
     3.7239987599098860   -0.0000000000000000    0.0000000000000000
    -1.8619993799549430    3.2250775297437073    0.0000000000000000
    -0.0000000000000000    0.0000000000000000   38.0253369073545286
 Sn  S   Sn  S  
   1   1   1   2
Cartesian
  2.0632015920749720  0.9358773822095878 16.4598471617338120
  0.2012022121200289  2.0109032254574895 15.0000000000000000
  0.8877331689461181  0.0443745711177118 21.5477655045701049
  2.7497325489010613  1.1194004143656144 23.0253369073545286
  0.8877331689461181  2.1944262576135167 20.0701941017856811
