Hf Br Ti Te
 1.0000000000000000
     3.5541914394063441    0.0000000000000000    0.0000000000000000
    -1.7770957197031720    3.0780200764390742    0.0000000000000000
     0.0000000000000000    0.0000000000000000   43.3016139766012600
 Hf  Br  Ti  Te 
   1   2   2   2
Cartesian
 -0.3440984228680767  1.2642442474742825 16.8486980501143790
  1.4329972968350955  2.2902509396206403 18.6973960898101055
  1.4329972968350955  2.2902509396206403 15.0000000000000000
  1.9469478601404964  1.2769635289928503 24.2073360741465997
  1.9469478601404964  1.2769635289928503 26.5864524528958519
  0.1698521404373241  2.3029702211392080 22.4921775390889920
  0.1698521404373241  2.3029702211392080 28.3016139766012600
