Ge Te Sn Se
 1.0000000000000000
     3.9251316939289502   -0.0000000000000000    0.0000000000000000
    -1.9625658469644751    3.3992637601419124    0.0000000000000000
     0.0000000000000000    0.0000000000000000   36.5717874543927763
 Ge  Te  Sn  Se 
   1   1   1   1
Cartesian
  2.0823908460296967  1.3587279078702206 16.5598212339094246
  0.1198249990652221  2.4918158279175247 14.9999999999999964
  2.2896953053182796  1.2250604404862142 21.5717874543927763
  0.3271294583538051  2.3581483605335181 20.0131667656649519
