Br Cu Zn I 
 1.0000000000000000
     4.0262712453165506    0.0000000000000000    0.0000000000000000
    -2.0131356215293676    3.4876671632734171    0.0000000000000000
    -0.0000000000000000    0.0000000000000000   40.8001281545623016
 Br  Cu  Zn  I  
   2   2   1   2
Cartesian
  1.1381962086235364  0.9207190574586555 15.0000000000000000
  1.1391318392100440  3.2448631460228410 18.6331282326220524
  1.1378422698876265  0.9209510582136557 17.4857902901367552
  1.1394836322361255  3.2446319874184129 16.1476785051133049
  0.6720577398889054  0.2330524691834883 24.1727223860499194
  2.6851933629234828  1.3956081902746276 25.8001281545623016
  0.6720577406415101  2.5581639113657673 22.5453166175375301
