S  Zr Cd I 
 1.0000000000000000
     4.2598500088554783    0.0000000000000000    0.0000000000000000
    -2.1299250032295207    3.6896400580210278    0.0000000000000000
    -0.0000000000000000    0.0000000000000000   40.6470223939457398
 S   Zr  Cd  I  
   2   2   1   2
Cartesian
  1.2508574852626384  0.9150580530826963 15.0000000000000018
  1.2511470635151483  3.3743550470160084 18.3278617161116202
  1.2509287763460732  0.9149742597802850 17.6238086027417182
  1.2510757612691079  3.3744388433267098 15.7040911197024702
  0.7603047810567504  0.0674751526585796 23.9265059721678384
  2.8902297858838955  1.2973551719989223 25.6470223939457469
  0.7603047818555628  2.5272351913392650 22.2059895503899227
