Hf Te S  Ti
 1.0000000000000000
     3.9136239267000459   -0.0000000000000000    0.0000000000000000
    -1.9568119622310347    3.3901434650883715    0.0000000000000000
     0.0000000000000000    0.0000000000000000   40.4863394173427764
 Hf  Te  S   Ti 
   1   2   2   2
Cartesian
 -0.3485916511242555  1.4391120277578540 16.8494380278571043
  1.6082203125987633  2.5691598494539778 18.6988761198817635
  1.6082203125987633  2.5691598494539778 14.9999999999999982
  1.3122220951567016  0.7751711596067714 22.2615910380016189
  1.3124329998087250  3.0346709727817358 25.4863394173427764
  1.3121536420894839  0.7751788688983614 24.7430377837072299
  1.3125014802307877  3.0346632670270703 23.0049339566828337
