Ca Br I  Pt
 1.0000000000000000
     4.0407746221081382    0.0000237985287992    0.0000000000000000
    -2.0203666923501222    3.4994462770518693    0.0000000000000000
    -0.0000000000000002   -0.0000000000000000   40.9605992265047476
 Ca  Br  I   Pt 
   1   2   2   2
Cartesian
 -0.3055812100595600  1.4812591514107185 16.7571598031843862
  1.7148129738958251  2.6477571094472081 18.5143196063686446
  1.7148129738958251  2.6477571094472081 15.0000000000000000
 -0.7737398297466043  1.9359001113471526 21.5641122490708597
  3.2668778123469937  1.9360983013791646 25.9605992265047476
  1.2464089096110624  0.7694441299133851 24.4717075325449791
  1.2464566972804496  3.1023803629676157 23.0521963680648625
