I  Cd Se Zr
 1.0000000000000000
     4.3631937410577759    0.0008383076656587    0.0000000000000000
    -2.1808648895765437    3.7864985963457070    0.0000000000000000
     0.0000000000000033    0.0000000000000000   42.4964856563860849
 I   Cd  Se  Zr 
   2   2   2   2
Cartesian
  1.2033309659896203 -0.3065579153845968 15.0000000000000036
  1.2148722733459054  4.7107560110509175 20.9102076548877029
  1.2200489603804334  2.1888207502717925 19.2986420562647396
  1.2012292966007123  2.2131916540268572 16.6116177631989395
  1.3049624578604508  0.9818729189383044 23.8370585554277561
  1.3057331801082761  3.5059651549072450 27.4964856563860849
  1.3049602973963037  0.9818354410534207 26.6109545798377596
  1.3057353538163754  3.5060026098238479 24.7228093111135401
