W  Te Pd S 
 1.0000000000000000
     3.5517354593387425    0.0000000000000000    0.0000000000000000
    -1.7758677296693712    3.0758931353093431    0.0000000000000000
     0.0000000000000000    0.0000000000000000   35.1106325935921859
 W   Te  Pd  S  
   1   2   1   2
Cartesian
 -0.4263768006627455  1.2409494734288755 16.8119622132334641
  1.3494909290066257  2.2662471851986568 18.6239244264669281
  1.3494909290066257  2.2662471851986568 14.9999999999999982
  0.2828536361771699  1.0137045612402535 18.8655607601876554
  2.0587213658465409  2.0390022730100346 20.1106325935921859
  0.2828536361771699  3.0642999847798156 17.6204889267831248
