Ge Te Se Ti
 1.0000000000000000
     3.9925763929167459   -0.0000000000000000    0.0000000000000000
    -1.9962881953040317    3.4586015009565316    0.0000000000000000
    -0.0000000000000000    0.0000000000000000  -39.0546192708335553
 Ge  Te  Se  Ti 
   1   1   2   2
Cartesian
  2.2487823292100613  1.2779941443600407 -22.4947980369241272
  0.2524941331364690  2.4308613113455504 -24.0546192708335553
  1.5494015957477334  1.4190852046101876 -18.5593314578672768
  1.5495084453843055  3.7242360800637204 -14.9999999999999964
  1.5492094417230160  1.4191522870240743 -15.9260133217986244
  1.5497006801901541  3.7241690241103029 -17.6332468344525175
