In Se In Se Ti
 1.0000000000000000
     4.0632030269705188    0.0000000000000000    0.0000000000000000
    -2.0316015123309183    3.5197659602308904    0.0000000000000000
     0.0000000000000000    0.0000000000000000   42.8386199470105993
 In  Se  In  Se  Ti 
   1   2   1   2   2
Cartesian
  0.7266102217423634  3.0534608530912601 19.0853122328591063
  2.7582200087723354  1.8798476801929243 15.0000000000000000
  0.7264579781645677  0.7067331252338455 20.3557279819780419
  0.7264662499782688  3.0536729515707073 16.2704079646881112
  1.1739731146996726  0.0661804169493222 24.2792884891433189
  1.1740818544380489  2.4120972802751024 27.8386199470105993
  1.1737775615685508  0.0662486856980817 26.9126066252119713
  1.1742774897792789  2.4120290384547580 25.2053731125580782
