S  Hf Zn I 
 1.0000000000000000
     4.1239388364023268    0.0000000000000000    0.0000000000000000
    -2.0619694170164666    3.5719684257690232    0.0000000000000000
    -0.0000000000000000    0.0000000000000000   35.4060657092019042
 S   Hf  Zn  I  
   2   2   1   2
Cartesian
  1.2914462886185007  1.0310515428604252 15.0000000000000000
  1.2917685908875736  3.4118516183954126 18.3254866465823731
  1.2915725568362242  1.0309278338171453 17.6045811352982824
  1.2916423127875098  3.4119753326066471 15.7209963454440533
  0.7405596845708466  0.0865229897399624 18.7786599406895220
  2.8025291031669086  1.2771791316629704 20.4060657092019042
  0.7405596853606442  2.4678352735859783 17.1512541721771328
