Ge S  Ni Se
 1.0000000000000000
     3.4926531069002347    0.0000000000000000    0.0000000000000000
    -1.7463265534501173    3.0247263171822496    0.0000000000000000
    -0.0000000000000000    0.0000000000000000   38.4843333437123363
 Ge  S   Ni  Se 
   1   2   1   2
Cartesian
  0.6671141460693726  1.0887977708463925 22.0873242178758424
  2.4134406995194904  2.0970398765738092 23.4843333437123363
  0.6671141460693726  3.1052819823012254 20.6903150920391568
  0.7353701720877337  0.5248769998341148 16.2453409434781548
  2.4816967255378510  1.5331191055615312 17.4906818874949650
  0.7353701720877335  2.5413612112889474 15.0000000000000000
