Pb Se In Se
 1.0000000000000000
     4.0760136571111083    0.0000000000000000    0.0000000000000000
    -2.0380068285555542    3.5299313732305260    0.0000000000000000
    -0.0000000000000000    0.0000000000000000   40.6139554872646187
 Pb  Se  In  Se 
   1   1   2   2
Cartesian
  1.9217266302638700  1.9849607530116975 16.5482420467416986
 -0.1162801982916839  3.1616045440885392 15.0000000000000000
  2.5434122036534061  1.3733666027592117 21.5231795501359784
  2.5434122036534061  1.3733666027592117 24.3374252635222454
  0.5054053750978528  2.5500103938360539 20.2466493039958522
  0.5054053750978528  2.5500103938360539 25.6139554872646187
