Mo O  W  O 
 1.0000000000000000
     2.8273103978171532    0.0000000000000000    0.0000000000000000
    -1.4136551989085766    2.4485226288935418    0.0000000000000000
     0.0000000000000000    0.0000000000000000   38.9195559032095275
 Mo  O   W   O  
   1   2   1   2
Cartesian
  0.2400798084671558  0.9317909036832320 16.2250003583693214
  1.6537350073757322  1.7479651133144125 17.4500007167386428
  1.6537350073757322  1.7479651133144125 15.0000000000000000
  0.2510601199043306  1.1372753626677579 22.6824188392213415
  1.6647153188129074  1.9534495722989385 23.9195559032095275
  1.6647153188129074  1.9534495722989385 21.4452817752331590
