Br Cu Bi O 
 1.0000000000000000
     3.9644858123182525    0.0000000000000000    0.0000000000000000
    -1.9822429050302186    3.4341594087130694    0.0000000000000000
    -0.0000000000000000    0.0000000000000000   41.0020508337157921
 Br  Cu  Bi  O  
   2   2   2   2
Cartesian
  0.6313597024896104  0.7280889272126548 15.0000000000000000
  0.6322809753016633  3.0165760205327605 18.6331282326220524
  0.6310111951458558  0.7283173686144040 17.4857902901367517
  0.6326273698627328  3.0163484083613175 16.1476785051133049
  2.0854279789996824  1.6876330543212574 22.7214855865242455
  2.0854279789996824  1.6876330543212574 25.8741017899670247
  0.1031850732168587  2.8323528572256134 22.5935364409743080
  0.1031850732168587  2.8323528572256134 26.0020508337157921
