Hf Br Zr Se
 1.0000000000000000
     3.5479625253716645    0.0000000000000000    0.0000000000000000
    -1.7739812626858322    3.0726256786470523    0.0000000000000000
    -0.0000000000000000    0.0000000000000000   43.5091502306716720
 Hf  Br  Zr  Se 
   1   2   2   2
Cartesian
 -0.3366136449994310  1.1675787080532036 16.8486980501143790
  1.4373676176864012  2.1917872676022210 18.6973960898101055
  1.4373676176864012  2.1917872676022210 15.0000000000000000
  2.1253054572461720  1.4350987446981422 24.1503018932390425
  2.1253054572461720  1.4350987446981422 26.8965444019226254
  0.3513241945603401  2.4593073042471594 22.5376958070404498
  0.3513241945603401  2.4593073042471594 28.5091502306716720
