Ga Se Sn S 
 1.0000000000000000
     3.7601959088470558   -0.0000000000000000    0.0000000000000000
    -1.8800979544235279    3.2564251802678656    0.0000000000000000
     0.0000000000000000    0.0000000000000000   41.7654409230676222
 Ga  Se  Sn  S  
   2   2   1   2
Cartesian
  2.0722621550044766  1.4682101815783346 16.1770728543176254
  2.0722621550044766  1.4682101815783346 18.6526280641098126
  0.1921642005809488  2.5536852416676230 15.0000000000000000
  0.1921642005809488  2.5536852416676230 19.8297009184262052
 -0.0423389461324541  0.7034965616812960 25.2878695202831949
  1.8377590082910737  1.7889716217705844 26.7654409230676151
 -0.0423389461324541  2.8744466818598728 23.8102981174987676
