Ge S  Pb O 
 1.0000000000000000
     3.5406273319746919   -0.0000000000000000    0.0000000000000000
    -1.7703136659873460    3.0662732148236014    0.0000000000000000
     0.0000000000000000    0.0000000000000000  -35.3572529923146845
 Ge  S   Pb  O  
   1   1   1   1
Cartesian
  1.8826801041635652  1.4517889979139349 -14.9999999999999964
  0.1123664381762198  2.4738800695218019 -16.3610326690029382
  2.0802548759431008  0.7986532611686746 -19.4144125903436695
  0.3099412099557551  1.8207443327765414 -20.3572529923146810
