Pb Se Tl S 
 1.0000000000000000
     4.0676176875133319    0.0000000000000000    0.0000000000000000
    -2.0338088437566659    3.5226602502694488    0.0000000000000000
     0.0000000000000000    0.0000000000000000  -40.4628812511814715
 Pb  Se  Tl  S  
   1   1   2   2
Cartesian
  1.9907697937862241  1.9434584352451196 -23.9146392044397693
 -0.0430390499704417  3.1176785186682689 -25.4628812511814715
  2.4715305769452169  1.3883642193176857 -19.0837598082552944
  2.4715305769452169  1.3883642193176857 -16.1978423164651559
  0.4377217331885511  2.5625843027408348 -20.2816021247199672
  0.4377217331885511  2.5625843027408348 -15.0000000000000000
