Cr Se Ga O 
 1.0000000000000000
     3.1715345496362519    0.0000000000000000    0.0000000000000000
    -1.5857672748181260    2.7466294889650325    0.0000000000000000
     0.0000000000000000    0.0000000000000000   41.0371195517855227
 Cr  Se  Ga  O  
   1   2   2   2
Cartesian
 -0.5814827748210436  1.2498385468843516 16.5737644427049204
  1.0042844999970824  2.1653817098726957 18.1475288854098409
  1.0042844999970824  2.1653817098726957 15.0000000000000000
  1.6072661597809967  1.2455063336629937 22.7746599082747743
  1.6072661597809967  1.2455063336629937 25.2879456243334886
  0.0214988849628712  2.1610494966513376 22.0254859808227224
  0.0214988849628712  2.1610494966513376 26.0371195517855227
