In Te Hg I 
 1.0000000000000000
     4.3784863529820353    0.0000000000000000    0.0000000000000000
    -2.1892431764910176    3.7918804118059208    0.0000000000000000
    -0.0000000000000000    0.0000000000000000   43.0269736225848831
 In  Te  Hg  I  
   2   2   1   2
Cartesian
  2.2281827348322931  1.6656780386629244 16.3809543382022582
  2.2281827348322931  1.6656780386629244 19.1931420891205455
  0.0389395583412762  2.9296381759315642 15.0000000000000018
  0.0389395583412762  2.9296381759315642 20.5740964273085325
  0.0583713193084747  0.9198362725733361 26.2837231066750761
  2.2476144957994935  2.1837964098419764 28.0269736225848902
  0.0583713193084748  3.4477565471106173 24.5404725907652619
