Al Se Zr Te
 1.0000000000000000
     3.7632015345837280   -0.0000000000000000    0.0000000000000000
    -1.8816007672918640    3.2590281285100917    0.0000000000000000
     0.0000000000000000    0.0000000000000000   45.2243099045719177
 Al  Se  Zr  Te 
   2   2   2   2
Cartesian
  1.9570371272927818  1.2918458949357767 16.1674793328362689
  1.9570371272927818  1.2918458949357767 18.7553318157724647
  0.0754363600009176  2.3781886044391407 14.9999999999999982
  0.0754363600009177  2.3781886044391407 19.9228111486087727
  2.2292458202390359  1.4888817883940977 25.7272252874108460
  2.2292458202390359  1.4888817883940977 28.4061163023536736
  0.3476450529471721  2.5752244978974614 23.9090318506610231
  0.3476450529471721  2.5752244978974614 30.2243099045719177
