Ga Te Tl S 
 1.0000000000000000
     4.0938344096496451   -0.0000000000000000    0.0000000000000000
    -2.0469172048248225    3.5453645976434625    0.0000000000000000
     0.0000000000000000    0.0000000000000000   44.2917968685057346
 Ga  Te  Tl  S  
   2   2   2   2
Cartesian
  2.2355904651235563  1.3310863282006951 16.2730454743835047
  2.2355904651235563  1.3310863282006951 18.7468688976248323
  0.1886732602987342  2.5128745274151822 15.0000000000000000
  0.1886732602987342  2.5128745274151822 20.0199143598030744
  2.3691002408826520  1.5718763310654904 25.2080370602504473
  2.3691002408826520  1.5718763310654904 28.0939545520405858
  0.3221830360578294  2.7536645302799774 24.0101947437857675
  0.3221830360578294  2.7536645302799774 29.2917968685057346
