Cl Pt Si Se
 1.0000000000000000
     3.5697933777111563    0.0000000000000001    0.0000000000000000
    -1.7847048210474630    3.0926863242445917    0.0000000000000000
     0.0000000000000011    0.0000000000000022   40.9901817361076652
 Cl  Pt  Si  Se 
   2   2   1   2
Cartesian
 -0.7118636164802006  1.8134507397388635 15.0000000000000000
  2.8568338770884369  1.8145927537131374 19.1833300419795165
  1.0726803285017035  0.7835722785454707 17.8345471777233797
  1.0730214296074865  2.8449383070578866 16.3507841280650084
  0.7114639482031323  0.1180616731229373 24.5505567071520190
  2.4969582392641234  1.1481286437968534 23.1109286492921022
  0.7116462766410394  2.1790905499090716 25.9901817361076581
