Zr Te Zr Se
 1.0000000000000000
     3.7717598978302416   -0.0000000000000000    0.0000000000000000
    -1.8858799489151208    3.2664398884963877    0.0000000000000000
     0.0000000000000000    0.0000000000000000   42.9357959556291533
 Zr  Te  Zr  Se 
   2   2   1   2
Cartesian
  2.0950967898734598  1.3803659062670770 23.4387113384680816
  2.0950967898734598  1.3803659062670770 26.1176023534109092
  0.2092168409583391  2.4691792024325396 21.6205179017182587
  0.2092168409583391  2.4691792024325396 27.9357959556291533
  0.1814390226491341  0.6218591847911316 16.5806053051321527
  2.0673189715642546  1.7106724809565941 18.1612106102641775
  0.1814390226491341  2.7994857771220563 15.0000000000000018
