Al Se Ga Se
 1.0000000000000000
     3.8010784664587494   -0.0000000000000000    0.0000000000000000
    -1.9005392332293747    3.2918305137312731    0.0000000000000000
    -0.0000000000000000    0.0000000000000000   43.7425906686354438
 Al  Se  Ga  Se 
   2   2   2   2
Cartesian
  2.0830482669095969  1.2584999903305718 16.1674793328362689
  2.0830482669095969  1.2584999903305718 18.7553318157724647
  0.1825090336802219  2.3557768282409959 15.0000000000000000
  0.1825090336802219  2.3557768282409959 19.9228111486087727
  2.2329821925881390  1.4838158262769674 25.0899626045268676
  2.2329821925881390  1.4838158262769674 27.5655178143190511
  0.3324429593587644  2.5810926641873913 23.9128897502092386
  0.3324429593587644  2.5810926641873913 28.7425906686354438
