Cr Te Pb O 
 1.0000000000000000
     3.5315408799906018   -0.0000000000000000    0.0000000000000000
    -1.7657704399953009    3.0584041165751126    0.0000000000000000
     0.0000000000000000    0.0000000000000000  -38.3038003762689669
 Cr  Te  Pb  O  
   1   2   1   1
Cartesian
 -0.1183611563454420  1.2571467011228021 -16.7062363127964808
  1.6474092836498586  2.2766147399811731 -14.9999999999999982
  1.6474092836498586  2.2766147399811731 -18.4124726255929616
  2.0312157082950648  1.7599986273157280 -22.3609599742979555
  0.2654452682997642  2.7794666661740983 -23.3038003762689669
