Sr Br Se Cd
 1.0000000000000000
     4.4207421403429787   -0.0000000000000000    0.0000000000000000
    -2.2103710688997777    3.8296980756974226    0.0000000000000000
     0.0000000000000000    0.0000000000000000   40.4382869663653892
 Sr  Br  Se  Cd 
   1   2   2   2
Cartesian
 -0.4555375494210203  1.7207450042977490 16.8028165994893754
  1.7548335211743731  2.9973110295302234 18.6056331989787509
  1.7548335211743731  2.9973110295302234 15.0000000000000000
  1.1380202575063820  0.7355014626985374 21.8496953501091582
  1.1383747948435081  3.2876958642882328 25.4382869663653963
  1.1376239815489424  0.7357056287110280 24.7400124534936694
  1.1387730083534073  3.2874911123910371 22.5477581874088671
