Ge S  Al S 
 1.0000000000000000
     3.5361729958884416   -0.0000000000000000    0.0000000000000000
    -1.7680864979442208    3.0624156466159151    0.0000000000000000
     0.0000000000000000    0.0000000000000000   39.7233174337066970
 Ge  S   Al  S  
   1   1   2   2
Cartesian
  1.7248221232517646  1.4771266828385099 16.3610326690029382
 -0.0432643746924556  2.4979318983771477 14.9999999999999982
  1.9634313215512273  1.1772668650198990 21.0559692601437654
  1.9634313215512273  1.1772668650198990 23.6541368082638215
  0.1953448236070068  2.1980720805585374 19.9867886347008650
  0.1953448236070068  2.1980720805585374 24.7233174337066970
