Cl Cd Zr Se
 1.0000000000000000
     3.8634533175819987    0.0012519794577290    0.0000000000000000
    -1.9306334766880209    3.3528396188725811    0.0000000000000000
     0.0000000000000033    0.0000000000000000   42.2971318436337924
 Cl  Cd  Zr  Se 
   2   2   1   2
Cartesian
  1.1382363168874370 -0.2762676116470516 15.0000000000000000
  1.1504164031036561  4.1721417189271719 20.5111542448488713
  1.1506941728106541  1.9369978730033992 19.0920396605243425
  1.1380154498304857  1.9588745636121945 16.4189511839095843
  0.6319512411242738  0.3257795360387304 25.7165265385017641
  2.5640422939495990  1.4442273953014100 27.2971318436337924
  0.6326800291929260  2.5614232751063604 24.1359212333696149
