Cr Te Ti Te
 1.0000000000000000
     3.5391805917501786    0.0000000000000000    0.0000000000000000
    -1.7695902958750893    3.0650203010364971    0.0000000000000000
     0.0000000000000000    0.0000000000000000   43.0378319187275267
 Cr  Te  Ti  Te 
   1   2   2   2
Cartesian
 -0.4587589376487281  1.3156649829221920 16.7062363127964844
  1.3108313582263609  2.3373384166010238 18.4124726255929652
  1.3108313582263609  2.3373384166010238 15.0000000000000000
  1.8830685072134479  1.3333857461901664 23.9435540162728628
  1.8830685072134479  1.3333857461901664 26.3226703950221150
  0.1134782113383586  2.3550591798689982 22.2283954812152587
  0.1134782113383586  2.3550591798689982 28.0378319187275267
