Ti I  Ti Te
 1.0000000000000000
     3.7528518021522874    0.0000000000000000    0.0000000000000000
    -1.8764259010761437    3.2500649973020925    0.0000000000000000
     0.0000000000000000    0.0000000000000000   41.2022220271227368
 Ti  I   Ti  Te 
   1   2   1   2
Cartesian
  0.2043712303957804  1.4123709640101585 16.8143657812576173
  2.0807971314719240  2.4957259631108561 18.6287315661405408
  2.0807971314719240  2.4957259631108561 15.0000000000000000
  0.3610962188533356  1.5047253626385020 24.4136918387575292
  2.2375221199294795  2.5880803617391996 26.2022220271227368
  2.2375221199294795  2.5880803617391996 22.6251616503966382
