Ga S  Mg Cl
 1.0000000000000000
     3.6591266222030923    0.0000000000000000    0.0000000000000000
    -1.8295633111015464    3.1688966104918217    0.0000000000000000
     0.0000000000000000    0.0000000000000000   41.3947982258241396
 Ga  S   Mg  Cl 
   2   2   1   2
Cartesian
  2.0014059779927940  1.4523391751084986 16.0940275853641523
  2.0014059779927940  1.4523391751084986 18.5727461466075034
  0.1718426668912483  2.5086380452724386 15.0000000000000000
  0.1718426668912483  2.5086380452724386 19.6667737319714995
 -0.0966124056465370  0.6538453185244306 25.0218923610800026
  1.7329509054550090  1.7101441886883713 26.3947982258241396
 -0.0966124056465365  2.7664430588523117 23.6489864963358727
