Sn O  Sn O 
 1.0000000000000000
     3.2810632872484824   -0.0000000000000000    0.0000000000000000
    -1.6405316436242412    2.8414841581816641    0.0000000000000000
    -0.0000000000000000    0.0000000000000000   36.7346631107426376
 Sn  O   Sn  O  
   1   1   1   2
Cartesian
  1.8292032831299669  1.0519937929474232 16.0113936186181434
  0.1886716395057254  1.9991551790079778 15.0000000000000000
  0.7685540579757746  0.2259930489755925 20.7257007860702274
  2.4090857016000156  1.1731544350361474 21.7346631107426376
  0.7685540579757746  2.1203158210967019 19.7167384613978136
