S  Cd Ge Cl
 1.0000000000000000
     4.2739683997604168   -0.0000000000000002    0.0000000000000000
    -2.1369841986476681    3.7028309732627025    0.0000000000000000
     0.0000000000000010    0.0000000000000017   41.8622872320725321
 S   Cd  Ge  Cl 
   2   2   2   2
Cartesian
  1.2651956742197425  0.9957898437126314 15.0000000000000018
  1.2655121989504159  3.4631222579957326 18.2374084038473541
  1.2648269681533852  0.9958596599825512 17.8133498455626729
  1.2658811294834704  3.4630524640529821 15.4239508926595708
  1.1669646880276952  0.9079730041325655 24.0004356058306385
  1.1669646925824400  3.3765269863077019 24.6722736077441098
  1.1669646880276952  0.9079730041325651 21.8104219742751297
  1.1669646925824402  3.3765269863077019 26.8622872320725321
