Cl Pd Cl Pt
 1.0000000000000000
     3.6498437908090597   -0.0000057074165550    0.0000000000000000
    -1.8249268378720891    3.1613991465328670    0.0000000000000000
    -0.0000000000000003    0.0000000000000000   40.2900192493566038
 Cl  Pd  Cl  Pt 
   2   2   2   2
Cartesian
 -0.6786147626829390  1.2891667931732473 15.0000000000000018
  2.9712807719562333  1.2890730665423500 19.0602727285529099
  1.1460909035074238  0.2351515791727361 17.7820690337428502
  1.1460835845040591  2.3427742676180157 16.2762156910758335
 -0.5366324426952713  1.6904948148105601 21.1066892073770873
  3.1120908151823201  1.6916564951550574 25.2900192493566038
  1.2879957702368459  0.6377327716802219 23.9412363851004670
  1.2882104727568024  2.7448960066168264 22.4574733354420992
