Ca Br Pb Cl
 1.0000000000000000
     4.1494739752956864    0.0000000000000000    0.0000000000000000
    -2.0747369876478432    3.5935498749484660    0.0000000000000000
     0.0000000000000000    0.0000000000000000   40.9116324774942655
 Ca  Br  Pb  Cl 
   1   2   1   2
Cartesian
  0.2060670396780427  1.5160085242299302 16.7571598031843862
  2.2808040273258858  2.7138584825460850 18.5143196063686446
  2.2808040273258858  2.7138584825460850 15.0000000000000000
  0.3397607688273731  1.6300813432411829 24.2112296472130062
  2.4144977564752161  2.8279313015573386 25.9116324774942584
  2.4144977564752161  2.8279313015573386 22.5108268169317540
