Zr Br Ni Se
 1.0000000000000000
     3.5520185212516102   -0.0000000000000000    0.0000000000000000
    -1.7760092606258051    3.0761382741167300    0.0000000000000000
     0.0000000000000000    0.0000000000000000   40.0959581516838668
 Zr  Br  Ni  Se 
   1   2   1   2
Cartesian
 -0.8239584570956737  1.6342193621187486 16.8261924305408073
  0.9520508035301313  2.6595987868243252 18.6523848530272502
  0.9520508035301313  2.6595987868243252 15.0000000000000000
  0.4083880766620765  0.8876458403815938 23.8506172076670566
  2.1843973372878813  1.9130252650871702 25.0959581516838668
  0.4083880766620763  2.9384046897927467 22.6052762641889018
