Hf Br W  Te
 1.0000000000000000
     3.5251328967120443    0.0000000000000000    0.0000000000000000
    -1.7625664483560222    3.0528546402688557    0.0000000000000000
     0.0000000000000000    0.0000000000000000   41.3185619284355283
 Hf  Br  W   Te 
   1   2   1   2
Cartesian
  0.1651222811434453  1.2255428485472606 16.8486980501143790
  1.9276887294994673  2.2431610619702127 18.6973960898101055
  1.9276887294994673  2.2431610619702127 14.9999999999999964
  0.2342498701171193  1.3764709608896217 24.5065997152020643
  1.9968163184731416  2.3940891743125738 26.3185619284355283
  1.9968163184731416  2.3940891743125738 22.6946375019685966
