Al S  Sn S 
 1.0000000000000000
     3.6399806262327141    0.0000000000000000    0.0000000000000000
    -1.8199903131163571    3.1523156916007196    0.0000000000000000
     0.0000000000000000    0.0000000000000000   41.6521414832282204
 Al  S   Sn  S  
   2   2   1   2
Cartesian
  2.0506651681509673  1.4262800294485647 16.0691806254429004
  2.0506651681509673  1.4262800294485647 18.6673481735629530
  0.2306748550346105  2.4770519266488042 15.0000000000000000
  0.2306748550346105  2.4770519266488042 19.7365287990058356
 -0.1887960274597338  0.7528888844939426 25.1745700804437895
  1.6311942856566235  1.8036607816941823 26.6521414832282133
 -0.1887960274597338  2.8544326788944221 23.6969986776593657
