In Te Mg I 
 1.0000000000000000
     4.2886161737519499    0.0000000000000000    0.0000000000000000
    -2.1443080868759754    3.7140505535500092    0.0000000000000000
    -0.0000000000000000    0.0000000000000000   36.5727453038011063
 In  Te  Mg  I  
   2   2   1   2
Cartesian
  2.5464723919131083  1.6777479605708179 16.3809543382022582
  2.5464723919131083  1.6777479605708179 19.1931420891205455
  0.4021643050371331  2.9157648117541539 15.0000000000000000
  0.4021643050371331  2.9157648117541539 20.5740964273085289
  0.1518582015357079  0.6548536030061344 19.8984276471332429
  2.2961662884116816  1.8928704541894716 21.5727453038011063
  0.1518582015357076  3.1308873053728088 18.2241099904653758
