I  Ag Se Cd
 1.0000000000000000
     4.5138213001121628   -0.0000000000000000    0.0000000000000000
    -2.2569106474777154    3.9127371982853516    0.0000000000000000
     0.0000000000000000    0.0000000000000000   41.0362417503443169
 I   Ag  Se  Cd 
   2   2   2   2
Cartesian
  1.3893480251112247  0.9093153603966322 15.0000000000000000
  1.3890903172488875  3.5164372428446788 19.1467191956345957
  1.3876341661067260  0.9102840782767259 17.9021344705961027
  1.3908193244687186  3.5154618288045927 16.2436090111161739
  1.4521180949333488  0.9811303348983308 22.4476501340880787
  1.4524800979418533  3.5886638205601402 26.0362417503443169
  1.4517134753467893  0.9813389278306998 25.3379672374725864
  1.4528866958762294  3.5884546290393620 23.1457129713877876
