Sn O  Ge S 
 1.0000000000000000
     3.3930885201638814   -0.0000000000000000    0.0000000000000000
    -1.6965442600819407    2.9385008557512684    0.0000000000000000
    -0.0000000000000000    0.0000000000000000   37.4541720364897088
 Sn  O   Ge  S  
   1   1   1   2
Cartesian
  1.9720051991859648  1.4718955759874139 16.0113936186181398
  0.2754609391040235  2.4513958612378368 15.0000000000000000
  0.4695390411250057  0.1656894292747903 21.0571629106532114
  2.1660833012069469  1.1451897145252128 22.4541720364897088
  0.4695390411250057  2.1246899997756357 19.6601537848165293
