Hf Br Ru Cl
 1.0000000000000000
     3.5466793215666348    0.0000000000000000    0.0000000000000000
    -1.7733396607833178    3.0715143915536638    0.0000000000000000
     0.0000000000000000    0.0000000000000000   40.0190616290169743
 Hf  Br  Ru  Cl 
   1   2   1   2
Cartesian
 -0.6047235907696091  1.2842029236265082 16.8486980501143790
  1.1686160700137083  2.3080410541443963 18.6973960898101055
  1.1686160700137083  2.3080410541443963 15.0000000000000000
  0.4204976106654592  0.9614504757632671 23.7916854794013801
  2.1938372714487779  1.9852886062811548 25.0190616290169743
  0.4204976106654604  3.0091267367990424 22.5643093403043444
