Ge Se Pt S 
 1.0000000000000000
     3.6199240404061417    0.0000000000000000    0.0000000000000000
    -1.8099620202030708    3.1349461787617248    0.0000000000000000
    -0.0000000000000000    0.0000000000000000   37.4711903871951648
 Ge  Se  Pt  S  
   1   1   1   2
Cartesian
  2.0547711214747109  1.0472767744999731 16.4473597337136113
  0.2448091012716402  2.0922588340872150 15.0000000000000000
  0.7213776087098904  0.2021897672459025 21.2391630176946933
  2.5313396289129613  1.2471718268331442 22.4711903871951648
  0.7213776087098903  2.2921538864203859 20.0071356481942253
