Ca I  Sr Cl
 1.0000000000000000
     4.3050204377199073    0.0000000000000000    0.0000000000000000
    -2.1525102188599536    3.7282570628766432    0.0000000000000000
     0.0000000000000000    0.0000000000000000   41.2090397887404762
 Ca  I   Sr  Cl 
   1   2   1   2
Cartesian
  0.1651831934839986  1.6258083796123917 16.9490723290323366
  2.3176934123439521  2.8685607339046060 18.8981446580646484
  2.3176934123439521  2.8685607339046060 15.0000000000000000
  0.2860854562559250  1.6001532103761016 24.5530640507209945
  2.4385956751158790  2.8429055646683157 26.2090397887404762
  2.4385956751158790  2.8429055646683157 22.8970883127015092
