S  Zn Cd Br
 1.0000000000000000
     3.9923466556187917    0.0000000000000000    0.0000000000000000
    -1.9961733266890653    3.4577293957022279    0.0000000000000000
    -0.0000000000000000    0.0000000000000000   40.1482027049514727
 S   Zn  Cd  Br 
   2   2   1   2
Cartesian
  1.1994093158446313  0.7550489394108993 15.0000000000000000
  1.1994813304082426  3.0600008235018699 18.1207426419030746
  1.1992800198188589  0.7550982753544636 17.5814600890093473
  1.1996106417444681  3.0599516190501932 15.5394284044792972
  0.6654579281381510  0.0146961535410676 23.5815948542355223
  2.6616312563209905  1.1672726187751430 25.1482027049514727
  0.6654579288850382  2.3198490840092187 22.0149870035195825
