Ca Cl Mg I 
 1.0000000000000000
     4.1724980484674017   -0.0000000000000000    0.0000000000000000
    -2.0862490242337008    3.6134893072137659    0.0000000000000000
     0.0000000000000000    0.0000000000000000   39.4136455068210552
 Ca  Cl  Mg  I  
   1   2   1   2
Cartesian
  0.5229573089020458  0.7464550598819422 16.4021708164290629
  2.6092063331357456  1.9509514956198637 17.8043416328581365
  0.5229573089020458  3.1554479313577848 14.9999999999999964
  0.6350074093546565  0.7539747043810963 22.7393278501531952
  2.7212564335883558  1.9584711401190189 24.4136455068210552
  0.6350074093546565  3.1629675758569413 21.0650101934853282
