In Te Ge I 
 1.0000000000000000
     4.3351503330920149    0.0000000000000000    0.0000000000000000
    -2.1675751665460079    3.7543503176822552    0.0000000000000000
    -0.0000000000000000    0.0000000000000000   43.0301474196872178
 In  Te  Ge  I  
   2   2   1   2
Cartesian
  2.2066941309982226  1.6527328871405258 16.3809543382022547
  2.2066941309982226  1.6527328871405258 19.1931420891205420
  0.0391189644522150  2.9041829930346106 15.0000000000000000
  0.0391189644522149  2.9041829930346106 20.5740964273085289
  0.0551641394352738  0.9130264828728500 26.2853715257059832
  2.2227393059812810  2.1644765887669344 28.0301474196872249
  0.0551641394352736  3.4159266946610187 24.5405956317247309
