Br Ag Tl Te Tl
 1.0000000000000000
     4.4768921098107635   -0.0000000000000000    0.0000000000000000
    -2.2384460536389881    3.8795297896389238    0.0000000000000000
     0.0000000000000000    0.0000000000000000   43.1146767523166972
 Br  Ag  Tl  Te  Tl 
   2   2   1   2   1
Cartesian
  1.3678760103400651  0.1848208247782525 15.0000000000000000
  1.3707512413690264  2.7684897498664882 18.8414998721338058
  1.3667288060902902  0.1856112707312849 17.8250159142190121
  1.3719047336545382  2.7676898323385082 16.0173027462489586
  0.7091045467321988  3.5097576641380659 26.7355815400857821
  2.9474332135955765  2.2160264250523309 22.4565346318144847
  0.7087408395946166  0.9230119350115977 28.1146767523166972
  0.7086205224511634  3.5103146509846388 23.8356251406471031
