Pb S  Ga Se
 1.0000000000000000
     3.8867745486284426   -0.0000000000000000    0.0000000000000000
    -1.9433872743142213    3.3660454978950263    0.0000000000000000
     0.0000000000000000    0.0000000000000000  -39.9144166103225331
 Pb  S   Ga  Se 
   1   1   2   2
Cartesian
  1.8322632656748015  1.8158403149329971 -23.4752527255835943
 -0.1111240086394195  2.9378554808980062 -24.9144166103225331
  2.2766329235718215  1.3712508114207738 -18.6526280641085833
  2.2766329235718215  1.3712508114207738 -16.1770728543163962
  0.3332456492576002  2.4932659773857826 -19.8297009184262087
  0.3332456492576002  2.4932659773857826 -15.0000000000000036
