Sn I  Hg
 1.0000000000000000
     4.4375441847641071   -0.0000000000000011    0.0000000000000000
    -2.2187720911095141    3.8589248781114134    0.0000000000000000
     0.0000000000000035    0.0000000000000000   42.3516418531244980
 Sn  I   Hg 
   1   4   2
Cartesian
 -0.4864529795312502  1.4810106434522849 17.0138547965808051
  1.7323191132749833  2.7673189361560886 19.0277095931616067
  1.7323191132749829  2.7673189361560886 15.0000000000000000
  1.3848624533857685 -0.4138374819700965 21.4274101076278285
  1.3945794143233021  4.6960436317686112 27.3516418531244980
  1.4031304653417229  2.1270998369629819 25.7315295323669098
  1.3816772368149812  2.1512589908857565 23.0480683628806844
