Cd Cl Pt Se
 1.0000000000000000
     3.8239298156320407   -0.0000000000000000    0.0000000000000000
    -1.9119649078160206    3.3116203626260918    0.0000000000000000
     0.0000000000000000    0.0000000000000000   38.9705264392251536
 Cd  Cl  Pt  Se 
   1   2   1   2
Cartesian
  0.5267100371416717  0.8203396801307407 16.4378714166122748
  2.4386749449576914  1.9242131343394382 17.8757428332245709
  0.5267100371416720  3.0280865885481361 15.0000000000000018
  0.5950473964814744  0.4399254594548418 22.6607177174174055
  2.5070123042974948  1.5437989136635391 23.9705264392251536
  0.5950473964814742  2.6476723678722363 21.3509089895200219
