Hf O  Zn F 
 1.0000000000000000
     3.1996335796313824    0.0000000000000000    0.0000000000000000
    -1.5998167898156912    2.7709639627625169    0.0000000000000000
     0.0000000000000000    0.0000000000000000   37.5049579696014703
 Hf  O   Zn  F  
   1   2   1   2
Cartesian
  0.4985695774383413  0.6580913332094647 15.9724295917334604
  2.0983863672540326  1.5817459874636368 16.9448591834669173
  0.4985695774383413  2.5054006417178090 15.0000000000000000
  0.6028188014476910  0.7476583529184679 21.5091910652569851
  2.2026355912633817  1.6713130071726399 22.5049579696014703
  0.6028188014476911  2.5949676614268116 20.5134241609124821
