Hf S  Pt Se
 1.0000000000000000
     3.7002209159102097   -0.0000000000000000    0.0000000000000000
    -1.8501104579551049    3.2044853127927646    0.0000000000000000
     0.0000000000000000    0.0000000000000000  -38.7380244769344131
 Hf  S   Pt  Se 
   1   2   1   2
Cartesian
  0.7512998490176728  1.0113040147901433 -16.4481043019911937
  2.6014103069727779  2.0794657857210650 -15.0000000000000018
  0.7512998490176728  3.1476275566519862 -17.8962086039820534
  0.9204157487636331  0.8370682097837007 -22.4282157490370260
  2.7705262067187375  1.9052299807146220 -21.1184070272292814
  0.9204157487636329  2.9733917516455435 -23.7380244769344131
