Cd Cl Pb Se
 1.0000000000000000
     3.9494033865983083   -0.0000000000000000    0.0000000000000000
    -1.9747016932991541    3.4202836625864288    0.0000000000000000
     0.0000000000000000    0.0000000000000000   39.5546812198008553
 Cd  Cl  Pb  Se 
   1   2   1   2
Cartesian
  0.4902693144357652  0.7322502541240782 16.4378714166122712
  2.4649710077349183  1.8723448083195549 17.8757428332245674
  0.4902693144357654  3.0124393625150314 14.9999999999999982
  0.6473459219471261  0.8315688244639537 22.8855820633004008
  2.6220476152462799  1.9716633786594304 24.5546812198008553
  0.6473459219471260  3.1117579328549070 21.2164829067999499
