Hf Br Se Ir
 1.0000000000000000
     3.4541558778111181   -0.0000000000000000    0.0000000000000000
    -1.7270779379321723    2.9963007241494366    0.0000000000000000
    -0.0000000000000000    0.0000000000000000   42.0981310129537860
 Hf  Br  Se  Ir 
   1   2   2   2
Cartesian
 -0.4006639734006291  1.3532193100947265 16.8486980501143790
  1.3264139658293923  2.3519862181445386 18.6973960898101055
  1.3264139658293923  2.3519862181445386 15.0000000000000000
  1.1087816203912575  0.6772619969094456 22.3233872763068710
  1.1085236413436410  2.6739661400835124 27.0981310129537860
  1.1084538012354572  0.6796342157321417 25.7136408071771285
  1.1088515642036079  2.6715919157563368 23.7079083587602852
