Br Cu Cl Cd
 1.0000000000000000
     3.9423582073298462    0.0012519794577290    0.0000000000000000
    -1.9700859204330374    3.4219872401795044    0.0000000000000000
     0.0000000000000033    0.0000000000000000   41.8100546349094628
 Br  Cu  Cl  Cd 
   2   2   2   2
Cartesian
  1.5549046976086021  0.9692363737062086 15.0000000000000000
  1.5565493132399528  3.2500295079217052 18.6331282326220524
  1.5545582081622462  0.9694639369942197 17.4857902901367517
  1.5568937019599938  3.2498027704087851 16.1476785051133049
  1.1592247088564631 -0.1744131403581587 21.2989003900605951
  1.1716239391258829  4.3657212052527496 26.8100546349094664
  1.1719222620962395  2.0844892460711320 25.3909400505849412
  1.1589844506935301  2.1068171133300222 22.7178515739701794
