Cr Te Cd F 
 1.0000000000000000
     3.4911382515772527   -0.0000000000000000    0.0000000000000000
    -1.7455691257886241    3.0234144139894950    0.0000000000000000
     0.0000000000000002   -0.0000000000000000   39.3843666364947964
 Cr  Te  Cd  F  
   1   2   1   2
Cartesian
 -0.7088288000348915  1.3890393398900103 16.7062363127964808
  1.0367403257537353  2.3968441445531750 18.4124726255929652
  1.0367403257537353  2.3968441445531750 15.0000000000000000
  0.5811184604755428  0.9215174236643117 23.3672049544656169
  2.3266875862641685  1.9293222283274769 24.3843666364947964
  0.5811184604755414  2.9371270329906420 22.3500432724364728
