Ga Te Ga I  Zn
 1.0000000000000000
     4.1700483211029438    0.0000000000000035    0.0000000000000000
    -2.0836381949370386    3.6122032307007674    0.0000000000000000
     0.0000000000000013    0.0000000000000023   43.8521393072310559
 Ga  Te  Ga  I   Zn 
   1   2   1   2   2
Cartesian
  0.2832218462691965  3.5168253229233244 27.5905163412149719
  2.3678345697972047  2.3127339314733373 23.8634855665651386
  0.2822869322578902  1.1087021528819134 28.8521393072310559
  0.2832614903215952  3.5168139737646706 25.1251206137704699
  0.8857451614642844  0.9626357608622981 15.0000000000000000
  0.8755032247727476  3.3601577278101504 20.3033500334364980
  2.9595032247074204  2.1535372659489087 18.8373937388954893
  2.9721426142752598  2.1697713911287630 16.4658492361148348
