In Te Tl Se
 1.0000000000000000
     4.2962547301431222    0.0000000000000000    0.0000000000000000
    -2.1481273650715611    3.7206657374330003    0.0000000000000000
    -0.0000000000000000    0.0000000000000000   45.0397480226942974
 In  Te  Tl  Se 
   2   2   2   2
Cartesian
  2.3509669008853935  1.4198361882736057 16.3809543382022547
  2.3509669008853935  1.4198361882736057 19.1931420891205420
  0.2028395358138327  2.6600581007512725 15.0000000000000000
  0.2028395358138326  2.6600581007512725 20.5740964273085254
  2.3994896952600469  1.5724738103492060 25.8587491560886704
  2.3994896952600469  1.5724738103492060 28.7519179402515519
  0.2513623301884856  2.8126957228268727 24.5709191146499322
  0.2513623301884856  2.8126957228268727 30.0397480226942974
