Ti Br Ru Cl
 1.0000000000000000
     3.5326064625358908   -0.0000000000000000    0.0000000000000000
    -1.7663032312679459    3.0593269381291623    0.0000000000000000
     0.0000000000000000    0.0000000000000000   39.7026721981305926
 Ti  Br  Ru  Cl 
   1   2   1   2
Cartesian
 -0.5759383951490178  1.3983989970024793 16.6938534583278368
  1.1903648361189274  2.4181746430455338 18.3877069173080052
  1.1903648361189274  2.4181746430455338 15.0000000000000000
  0.3174986383133412  0.9572498579293551 23.4752960485149913
  2.0838018695812881  1.9770255039724092 24.7026721981305855
  0.3174986383133424  2.9968011500154628 22.2479199094179556
