Al Se Sn Se
 1.0000000000000000
     3.8212810859575663   -0.0000000000000000    0.0000000000000000
    -1.9106405429787832    3.3093264954402395    0.0000000000000000
    -0.0000000000000000    0.0000000000000000   42.0947682862152064
 Al  Se  Sn  Se 
   2   2   1   2
Cartesian
  2.0834535439369515  1.4594411337395554 16.1674793328362689
  2.0834535439369515  1.4594411337395554 18.7553318157724647
  0.1728130009581683  2.5625499655529689 15.0000000000000000
  0.1728130009581683  2.5625499655529689 19.9228111486087727
  0.0582072711826859  0.6613115971807714 25.5018372666410009
  1.9688478141614689  1.7644204289941847 27.0947682862152064
  0.0582072711826859  2.8675292608075975 23.9089062470667351
