Ge Se Zr Te
 1.0000000000000000
     3.7074489248825016   -0.0000000000000000    0.0000000000000000
    -1.8537244624412508    3.2107449521815514    0.0000000000000000
    -0.0000000000000000    0.0000000000000000   41.2617288346650639
 Ge  Se  Zr  Te 
   1   1   2   2
Cartesian
  1.9325583353419742  1.3963610910969790 16.4473597337136113
  0.0788338729007236  2.4666094084908297 15.0000000000000000
  2.0628125761660923  1.2153157785551003 21.7646442175039923
  2.0628125761660923  1.2153157785551003 24.4435352324468198
  0.2090881137248417  2.2855640959489505 19.9464507807541693
  0.2090881137248417  2.2855640959489505 26.2617288346650639
