S  Cd I  Cu
 1.0000000000000000
     4.2462431557760336   -0.0000000000000000    0.0000000000000000
    -2.1231215754624952    3.6788202055787220    0.0000000000000000
     0.0000000000000000    0.0000000000000000   40.6623389368295136
 S   Cd  I   Cu 
   2   2   2   2
Cartesian
  1.2964436778617479  0.9878631885595986 15.0000000000000000
  1.2967581500959353  3.4391963455646111 18.2374084038473541
  1.2960773635926124  0.9879325521104367 17.8133498455626693
  1.2971246873756519  3.4391270041961630 15.4239508926595690
  1.5314135554664736  0.9319353494600042 21.8065360061895213
  1.5314135358522725  3.3844821654418862 25.6623389368295207
  1.5314135554664738  0.9319353494600046 24.4278350379495173
  1.5314135358522722  3.3844821654418857 23.0436351606695204
