Ti Br Zr Se
 1.0000000000000000
     3.5338896663409205    0.0000000000000000    0.0000000000000000
    -1.7669448331704602    3.0604382252225508    0.0000000000000000
    -0.0000000000000000    0.0000000000000000   43.0852801515404309
 Ti  Br  Zr  Se 
   1   2   2   2
Cartesian
 -0.1145972176851654  1.0742948746208763 16.6938534583278368
  1.6523476154852947  2.0944409496950600 18.3877069173080088
  1.6523476154852947  2.0944409496950600 15.0000000000000000
  2.0180808344545542  1.4632440246782150 23.7264318141077979
  2.0180808344545542  1.4632440246782150 26.4726743227913843
  0.2511360012840942  2.4833900997523983 22.1138257279092088
  0.2511360012840942  2.4833900997523983 28.0852801515404309
