Te Zn Ge I 
 1.0000000000000000
     4.3148919661302259   -0.0000000000000000    0.0000000000000000
    -2.1574459818286171    3.7373315912323193    0.0000000000000000
    -0.0000000000000000    0.0000000000000000   41.1813718016635235
 Te  Zn  Ge  I  
   2   2   1   2
Cartesian
  1.2771085349671558  0.6630244499411688 15.0000000000000000
  1.2772153448583623  3.1543006218613474 18.7597473661473551
  1.2769747347838494  0.6631106605027820 17.8109584950062683
  1.2773489149812143  3.1542140484180807 15.9491402070049269
  0.7240871876277357  0.1769881343074892 24.4365959076822818
  2.8815331711050138  1.4227653313849284 26.1813718016635235
  0.7240871884520663  2.6685425284623676 22.6918200137010331
