Sn S  Hf Se
 1.0000000000000000
     3.7623206952343633   -0.0000000000000000    0.0000000000000000
    -1.8811603476171816    3.2582652992568888    0.0000000000000000
    -0.0000000000000000    0.0000000000000000   38.1808640257057377
 Sn  S   Hf  Se 
   1   1   1   2
Cartesian
  2.1145736963079149  0.9522272359638424 16.4598471617338120
  0.2334133486907334  2.0383156690494717 15.0000000000000000
  0.8760318182779977  0.0933347903410260 21.6049750049262386
  2.7571921658951792  1.1794232234266555 23.1808640257057377
  0.8760318182779976  2.2655116565122850 20.0290859841490629
