Ti Se Zr Se
 1.0000000000000000
     3.5455106854694765    0.0000000000000000    0.0000000000000000
    -1.7727553427347382    3.0705023230057451    0.0000000000000000
    -0.0000000000000000    0.0000000000000000   42.9374657146282601
 Ti  Se  Zr  Se 
   1   2   2   2
Cartesian
 -0.1096318217572650  1.0633809895298751 16.6199398271809464
  1.6631235209774733  2.0868817638651231 18.2398796543619532
  1.6631235209774733  2.0868817638651231 15.0000000000000000
  2.0340739263873533  1.4568335752572794 23.5786173771956236
  2.0340739263873533  1.4568335752572794 26.3248598858792064
  0.2613185836526152  2.4803343495925279 21.9660112909970309
  0.2613185836526151  2.4803343495925279 27.9374657146282530
