I  Cu Pt Te
 1.0000000000000000
     4.0964049275034480    0.0000000000000000    0.0000000000000000
    -2.0482024625587423    3.5475907293394320    0.0000000000000000
     0.0000000000000000    0.0000000000000000   40.5397172029565525
 I   Cu  Pt  Te 
   2   2   1   2
Cartesian
  1.2095222301230479  0.7981691053065461 15.0000000000000000
  1.2095222104363448  3.1632296033581362 18.8558029306400030
  1.2095222301230482  0.7981691053065463 17.6212990317599996
  1.2095222104363446  3.1632296033581362 16.2370991544799992
  0.6644897550107389  0.1490884924093133 24.1525029734030454
  2.7126922191601226  1.3316187355224574 25.5397172029565525
  0.6644897558060601  2.5141489786356011 22.7652887448060142
