Al Se Mg Br
 1.0000000000000000
     3.8306272829124746   -0.0000000000000000    0.0000000000000000
    -1.9153136414562377    3.3174205394319634    0.0000000000000000
    -0.0000000000000000    0.0000000000000000   41.9290573919918899
 Al  Se  Mg  Br 
   2   2   1   2
Cartesian
  2.1217034436155453  1.4696760649041227 16.1674793328362689
  2.1217034436155453  1.4696760649041227 18.7553318157724647
  0.2063898021593081  2.5754829113814441 15.0000000000000000
  0.2063898021593081  2.5754829113814441 19.9228111486087727
  0.0887725061627057  0.5896797432332863 25.4220317435761274
  2.0040861476189411  1.6954865897106086 26.9290573919918899
  0.0887725061627053  2.8012934361879309 23.9150060951603649
