I  Pt Se Zn
 1.0000000000000000
     4.0190097528812716    0.0000237985287992    0.0000000000000000
    -2.0094842565727467    3.4807606225892993    0.0000000000000000
     0.0000000000000002    0.0000000000000000  -41.3839501400885510
 I   Pt  Se  Zn 
   2   2   2   2
Cartesian
 -0.9222567926619922  1.4723743300659202 -26.3839501400885581
  3.0965968257535272  1.4725715889147368 -21.9874631626546702
  1.0870107596966367  0.3121468030490182 -23.4763548566144351
  1.0870583647807497  2.6326261247375573 -24.8958660210945553
  1.3447574238325202  1.0768582407230540 -18.4133035906909797
  1.3448750059160417  3.3972417180358065 -15.0000000000000000
  1.3446582543879406  1.0769123687365960 -15.7576064090810632
  1.3449741463662173  3.3971875880660725 -17.6553219886027435
