Ba Cl Sr Br
 1.0000000000000000
     4.4611464649102315    0.0000000000000000    0.0000000000000000
    -2.2305732324551157    3.8634661686154042    0.0000000000000000
     0.0000000000000000    0.0000000000000000   40.9867656032669458
 Ba  Cl  Sr  Br 
   1   2   1   2
Cartesian
  0.2224963855034930  1.6001583154286145 16.6919307837616273
  2.4530696179586089  2.8879803716337489 18.3838615675232617
  2.4530696179586089  2.8879803716337489 14.9999999999999982
  0.3247687815959700  1.6814939429757820 24.1839490037775704
  2.5553420140510861  2.9693159991809166 25.9867656032669458
  2.5553420140510861  2.9693159991809166 22.3811324042881949
