Ga Te Ga Se Zn
 1.0000000000000000
     4.1118963494368899   -0.0000000000000000    0.0000000000000000
    -2.0559481764026901    3.5612059357550194    0.0000000000000000
     0.0000000000000000    0.0000000000000000   42.2936024675621525
 Ga  Te  Ga  Se  Zn 
   1   2   1   2   2
Cartesian
  0.6617301799065085  3.3739408742572321 18.7270307746498332
  2.7177282106992555  2.1868489149846790 15.0000000000000000
  0.6617193919515341  0.9998157269528943 19.9886537406659137
  0.6617692754102749  3.3739296853266594 16.2616350472053277
  1.3061986691193459  0.3417779309650657 23.8802988768711657
  1.3063049041253749  2.7157806440305254 27.2936024675621454
  1.3060972073611474  0.3418333103652315 26.5359960584810821
  1.3064063362190683  2.7157252626291397 24.6382804789594019
