Ti I  Zr Te
 1.0000000000000000
     3.7588028370493562   -0.0000000000000000    0.0000000000000000
    -1.8794014185246781    3.2552187447017618    0.0000000000000000
    -0.0000000000000000    0.0000000000000000  -43.6623158357960861
 Ti  I   Zr  Te 
   1   2   2   2
Cartesian
 -0.1523004441175028  1.0947353917825620 -26.8479500545384653
  1.7271009744071750  2.1798083066831491 -25.0335842696555417
  1.7271009744071750  2.1798083066831491 -28.6623158357960861
  2.1968425637654505  1.5208328416271428 -19.4970846171610717
  2.1968425637654505  1.5208328416271428 -16.8181936022182441
  0.3174411452407726  2.6059057565277302 -21.3152780539108946
  0.3174411452407727  2.6059057565277302 -15.0000000000000000
