Hf I  In S 
 1.0000000000000000
     3.8438448691545224    0.0000000000000000    0.0000000000000000
    -1.9219224345772612    3.3288673048942874    0.0000000000000000
     0.0000000000000000    0.0000000000000000   42.7937006492133207
 Hf  I   In  S  
   1   2   2   2
Cartesian
 -0.2823886242220647  1.2192344412645648 16.9476853944779791
  1.6395338103551964  2.3288568762293269 18.8953707810581477
  1.6395338103551964  2.3288568762293269 15.0000000000000000
  2.1648481060197309  1.4375364185261239 23.7970204100321610
  2.1648481060197309  1.4375364185261239 26.6159779182855658
  0.2429256714424701  2.5471588534908864 22.6192976790975067
  0.2429256714424701  2.5471588534908864 27.7937006492133207
