F  Pd Si S 
 1.0000000000000000
     3.2996143434873915   -0.0000000000000001    0.0000000000000000
    -1.6496264300449557    2.8595476913662261    0.0000000000000000
     0.0000000000000000    0.0000000000000021   40.4210060163463538
 F   Pd  Si  S  
   2   2   1   2
Cartesian
 -1.5408901755989066  1.6450527199958089 14.9999999999999964
  1.7570512215314040  1.6490261225637979 18.8818537777082334
  0.1078989910895806  0.6945872175009925 17.7492457296891466
  0.1081805206388671  2.5997653968504681 16.1325574662624049
  2.4734926263659980  0.8506685393304937 24.0953259706250336
  0.8240739480842587  1.8041138970124266 22.7691040628520192
 -0.8260677673267239  2.7576719327059629 25.4210060163463538
