Sn Te Ge Cl
 1.0000000000000000
     4.2026080510860613   -0.0000000000000002    0.0000000000000000
    -2.1013040255430306    3.6395653343906171    0.0000000000000000
     0.0000000000000010    0.0000000000000016   40.5530518502793029
 Sn  Te  Ge  Cl 
   1   1   2   2
Cartesian
  2.3634842964634801  1.4132725546278624 16.6861605505646438
  0.2621802709204493  2.6264609994247343 15.0000000000000018
  1.3566115713635674  0.7581374344090317 22.6912002240374022
  1.3566115750342898  3.1845143240027780 23.3630382259508806
  1.3566115713635674  0.7581374344090313 20.5011865924819006
  1.3566115750342898  3.1845143240027780 25.5530518502793029
