Sn I  Se Hf
 1.0000000000000000
     4.3425780825291618   -0.0000000000000000    0.0000000000000000
    -2.1712890400462879    3.7614868115015332    0.0000000000000000
     0.0000000000000000    0.0000000000000000   41.0435935684848019
 Sn  I   Se  Hf 
   1   2   2   2
Cartesian
 -0.3090291698552909  1.7071633866243716 17.0138547965808016
  1.8622598718153878  2.9609923237915492 19.0277095931616067
  1.8622598718153878  2.9609923237915492 15.0000000000000000
  1.4119091222071760  0.7827459850620851 22.3523170389489394
  1.4121780036367702  3.2898214693853745 26.0435935684848019
  1.4119715159137129  0.7826774410518867 25.1209653901365471
  1.4121156864327389  3.2898900667830921 23.2753841443276706
