Br Cd Br Hg
 1.0000000000000000
     4.1417530967040328    0.0024699665331211    0.0000000000000000
    -2.0687198648853560    3.5991789686835061    0.0000000000000000
    -0.0000000000000069   -0.0000000000000000  -43.2477760170632024
 Br  Cd  Br  Hg 
   2   2   2   2
Cartesian
  1.4826221994258220 -0.1533680815704639 -28.2477760170632024
  1.4972611918576477  4.6223980910650049 -22.5249268071553992
  1.4964628082937395  2.2227710486424672 -24.0467168133409075
  1.4830031414381588  2.2465971128855982 -26.7262501354311048
  1.3441404538120632 -0.0653150099975425 -20.7696522731609861
  1.3562947577520796  4.7130206692758110 -15.0000000000000071
  1.3599333626827315  2.3102176651972801 -16.5517606558400487
  1.3410524343816197  2.3371716933259004 -19.2183829790537786
