Sn Te Se Hf
 1.0000000000000000
     4.2191954424387097   -0.0000000000000000    0.0000000000000000
    -2.1095977200010614    3.6546343107972095    0.0000000000000000
    -0.0000000000000000    0.0000000000000000  -39.1882351517836085
 Sn  Te  Se  Hf 
   1   1   2   2
Cartesian
  2.5798998914404896  1.2863537309597675 -22.5020746012189718
  0.4703021706272327  2.5045651678921703 -24.1882351517836121
  1.3682618613935142  1.3715708453843205 -18.6912765295358660
  1.3685231033057903  3.8074278731825664 -15.0000000000000036
  1.3683224823512155  1.3715042485028148 -15.9226281783482566
  1.3684625566769824  3.8074945219350127 -17.7682094241571349
