Ge F  I  Zn
 1.0000000000000000
     4.2209741635594460    0.0000000000000035    0.0000000000000000
    -2.1091011133171023    3.6562703397616900    0.0000000000000000
     0.0000000000000026    0.0000000000000045   42.5771987732649890
 Ge  F   I   Zn 
   2   2   2   2
Cartesian
  0.4449023744373388  0.9355574563258634 16.7809067055787082
  0.4458263570991836  3.3730710161669903 17.3739865908562336
  0.4449023744373388  0.9355574563258628 15.0000000000000000
  0.4458263570991838  3.3730710161669908 19.1548933276439897
  0.5410123328286350  0.8696886835714410 22.2738487398285017
  0.5306340863744272  3.2964592434820297 27.5771987732649961
  2.6400901531384298  2.0751186033550528 26.1112424787239874
  2.6528838225503710  2.0915507769056991 23.7396979759433364
