Si S  B  P 
 1.0000000000000000
     3.2603131227017044   -0.0000000000000001    0.0000000000000000
    -1.6299758205930264    2.8238108520844447    0.0000000000000000
    -0.0000000000000011   -0.0000000000000019  -36.5757295234615754
 Si  S   B   P  
   1   2   1   1
Cartesian
  2.6886849551889203  0.7149312051835226 -16.3256800457213238
  1.0589129774916217  1.6564609988710814 -17.6519019534943418
 -0.5715734252613031  2.5981020623908995 -15.0000000000000036
  0.1764649400952388  2.3750935492321736 -21.5757295234615825
  1.8065612545268166  1.4338232652040253 -21.5757295234615825
