W  Te Zn Cl
 1.0000000000000000
     3.5744756078180613    0.0000000000000000    0.0000000000000000
    -1.7872378039090309    3.0955866815782631    0.0000000000000000
     0.0000000000000000    0.0000000000000000   40.0460508904364616
 W   Te  Zn  Cl 
   1   2   1   2
Cartesian
 -0.7765617815883559  1.4707237766379671 23.2340886772029975
  1.0106760223206748  2.5025860038307206 25.0460508904364616
  1.0106760223206748  2.5025860038307206 21.4221264639695299
  0.7269262167754298  1.0863875299508687 16.3674669885821409
  2.5141640206844595  2.1182497571436230 17.7349339771642569
  0.7269262167754298  3.1501119843363767 15.0000000000000036
