Pb Br Sn I 
 1.0000000000000000
     4.3637096091834575    0.0000000000000000    0.0000000000000000
    -2.1818548045917288    3.7790833762911387    0.0000000000000000
     0.0000000000000000    0.0000000000000000   41.7080533346733375
 Pb  Br  Sn  I  
   1   2   1   2
Cartesian
  0.1932522788341969  1.5606588425178427 16.8414801415537809
  2.3751070834259260  2.8203533012815556 18.6829602831084465
  2.3751070834259260  2.8203533012815556 15.0000000000000000
  0.3340199996771056  1.6260772296948991 24.6941985380925431
  2.5158748042688344  2.8857716884586120 26.7080533346733446
  2.5158748042688344  2.8857716884586120 22.6803437415117379
