Hf Te Hg Cl
 1.0000000000000000
     3.9516627491083653    0.0000000000000000    0.0000000000000000
    -1.9758313745541829    3.4222403279164970    0.0000000000000000
    -0.0000000000000000    0.0000000000000000   40.3393994839563774
 Hf  Te  Hg  Cl 
   1   2   1   2
Cartesian
 -0.2689757282196561  1.1131507839951529 16.8494380278571114
  1.7068556463345264  2.2538975599673186 18.6988761198817670
  1.7068556463345264  2.2538975599673186 15.0000000000000018
  0.5916852985084443  0.9252839206045440 23.8797951953720329
  2.5675166730626291  2.0660306965767101 25.3393994839563774
  0.5916852985084449  3.2067774725488762 22.4201909067877097
