Br Hg Ge Cl
 1.0000000000000000
     4.2058589557867041    0.0010674728082232    0.0000000000000000
    -2.1019973999285222    3.6488784508431342    0.0000000000000000
     0.0000000000000041    0.0000000000000015   38.6134633610839160
 Br  Hg  Ge  Cl 
   2   2   2   2
Cartesian
  1.3777212560836511 -0.2541948646899893 15.0000000000000000
  1.3883941326790799  4.5891662307850236 20.7696522731609825
  1.3929285974689343  2.1536615852226491 19.2178916173209409
  1.3737460093608245  2.1809889845873207 16.5512692941072110
  1.1255091031155473  0.9635605409317624 20.7516117348420224
  1.1261304920989959  3.3965019990975267 21.4234497367554972
  1.1255091031155471  0.9635605409317619 18.5615981032865172
  1.1261304920989961  3.3965019990975267 23.6134633610839160
