Ge Br Ge Br Zn I 
 1.0000000000000000
     4.1735587146881832   -0.0506467540195987    0.0000000000000001
    -2.0430020398096387    3.6400242440150823    0.0000000000000001
     0.0000000000000023   -0.0000000000000000   40.3726599252133269
 Ge  Br  Ge  Br  Zn  I  
   1   1   1   1   1   2
Cartesian
  2.0381322199669460  1.5108494290396792 17.3501422193768633
 -0.0682781297624686  0.3288501231331198 20.3794909095427279
 -0.0638137669997220  0.3311155822605405 18.0293662204716618
 -2.1354675478485134  1.5588512575015292 15.0000000000000000
  2.3646517612036289  0.5490229483873104 23.7452541567009447
  4.4660235577258707  1.7285998603792718 25.3726599252133269
  2.3938366395599302  2.9588235263908325 22.1178483881885555
