In Se Hg Br
 1.0000000000000000
     4.1087401105513361   -0.0000000000000000    0.0000000000000000
    -2.0543700552756681    3.5582733132855395    0.0000000000000000
     0.0000000000000000    0.0000000000000000   42.5332575597564144
 In  Se  Hg  Br 
   2   2   1   2
Cartesian
  2.3561831962255848  1.6492324216541923 16.2765302461401262
  2.3561831962255848  1.6492324216541923 19.0907759595263933
  0.3018131409499172  2.8353235260827052 15.0000000000000000
  0.3018131409499172  2.8353235260827052 20.3673061832687665
 -0.0048519687792213  0.5300961015125912 25.9438499836256042
  2.0495180864964455  1.7161872059411045 27.5332575597564073
 -0.0048519687792216  2.9022783103696175 24.3544424074948083
