Se Ir Ni S 
 1.0000000000000000
     3.3808831348288244   -0.0000000000000000    0.0000000000000000
    -1.6904415664410255    2.9328446673218025    0.0000000000000000
    -0.0000000000000000    0.0000000000000000   41.0526766509373715
 Se  Ir  Ni  S  
   2   2   1   2
Cartesian
  1.0613048273261643  0.6899256749985927 14.9999999999999964
  1.0610523207820042  2.6443433512115728 19.7747437366469114
  1.0609839621729205  0.6922476546543028 18.3902535308702575
  1.0613732874395461  2.6420194085242250 16.3845210824534142
  0.5911914931714483  0.0891955258508069 24.8772427227121185
  2.2816330609103228  1.0668104149580744 26.0526766509373715
  0.5911914938203727  2.0444253040653422 23.7018087944868583
