Zr Se Ti Te
 1.0000000000000000
     3.6019643934252801    0.0000000000000000    0.0000000000000000
    -1.8009821967126400    3.1193926682332989    0.0000000000000000
     0.0000000000000000    0.0000000000000000   45.7751331847818292
 Zr  Se  Ti  Te 
   2   2   2   2
Cartesian
  1.9298130432031986  1.2540535467404699 16.6126060861985891
  1.9298130432031986  1.2540535467404699 19.3588485948821756
  0.1288308464905589  2.2938511028182358 15.0000000000000000
  0.1288308464905588  2.2938511028182358 20.9714544236312221
  2.1073735244761065  1.3679530487683220 26.6808552823271654
  2.1073735244761065  1.3679530487683220 29.0599716610764176
  0.3063913277634666  2.4077506048460879 24.9656967472695612
  0.3063913277634666  2.4077506048460879 30.7751331847818292
