In Te Pb Br
 1.0000000000000000
     4.4284754640282742    0.0000000000000000    0.0000000000000000
    -2.2142377320141371    3.8351722518845639    0.0000000000000000
    -0.0000000000000000    0.0000000000000000   42.8673374882067790
 In  Te  Pb  Br 
   2   2   1   2
Cartesian
  2.2519518396452760  1.6832183688063915 16.3809543382022582
  2.2519518396452760  1.6832183688063915 19.1931420891205420
  0.0377141076311390  2.9616091194345793 15.0000000000000000
  0.0377141076311389  2.9616091194345793 20.5740964273085289
  0.0593001834906677  0.9301668029772394 26.2030658205671401
  2.2735379155048046  2.2085575536054267 27.8673374882067790
  0.0593001834906676  3.4869483042336138 24.5387941529275224
