Cl Ag Tl Se Tl
 1.0000000000000000
     4.3147067148138980    0.0000000000000000    0.0000000000000000
    -2.1573533561501934    3.7447162756131283    0.0000000000000000
    -0.0000000000000000    0.0000000000000000   42.2458563231294590
 Cl  Ag  Tl  Se  Tl 
   2   2   1   2   1
Cartesian
  1.2313154365848842  0.2701875954665351 15.0000000000000000
  1.2268915619154721  2.7615202442609603 18.2868565417185991
  1.2268332835651106  0.2723085053913316 17.9775021923323379
  1.2314088368163942  2.7593809381970402 15.3080484603362663
  0.8496976028658735  3.2269191188512458 25.9617437267002487
  3.0068992392165881  1.9781194033608842 21.7829437329720257
  0.8495912555823425  0.7299408563190424 27.2458563231294661
  0.8494395304600757  3.2273464488406969 23.0670529860214657
