Ca Br Mg I 
 1.0000000000000000
     4.2530377861318680   -0.0000000000000000    0.0000000000000000
    -2.1265188930659340    3.6832387660453278    0.0000000000000000
     0.0000000000000000    0.0000000000000000   39.6939937665889104
 Ca  Br  Mg  I  
   1   2   1   2
Cartesian
  0.5183242690559606  0.7736411531813030 16.5603729944674427
  2.6448431621218940  2.0013874085297463 18.1207459889348819
  0.5183242690559604  3.2291336638781898 15.0000000000000000
  0.6832552958473779  0.8707755797057581 23.0196761099210470
  2.8097741889133108  2.0985218350542012 24.6939937665889104
  0.6832552958473778  3.3262680904026447 21.3453584532531799
