Al Se Al Cl Pd
 1.0000000000000000
     3.7302810700672024   -0.0000057074165551    0.0000000000000000
    -1.8651454785383019    3.2304886314365651    0.0000000000000000
    -0.0000000000000001    0.0000000000000000   42.6805252340199459
 Al  Se  Al  Cl  Pd 
   1   2   1   2   2
Cartesian
  0.5908490965298624  2.8992954121600567 18.7386451449391878
  2.4560293087699177  1.8225173267440031 15.0000000000000000
  0.5907579344704519  0.7457670283728991 19.8990279270139681
  0.5907926663926070  2.8993310724649399 16.1603825001332311
 -0.7374086543310561  1.3721870056116938 23.6202525054670431
  2.9929252999224465  1.3720913554014575 27.6805252340199530
  1.1275108501393234  0.2951372953528229 26.4023215392098933
  1.1275034417616978  2.4488201902474160 24.8964681965428767
