Ge Se Mg Cl
 1.0000000000000000
     3.6695708265390667    0.0000000000000000    0.0000000000000000
    -1.8347854132695334    3.1779415567690910    0.0000000000000000
    -0.0000000000000000    0.0000000000000000   37.8957894419913757
 Ge  Se  Mg  Cl 
   1   1   1   2
Cartesian
  2.0146474214654440  1.4273562774792392 16.4473597337136113
  0.1798620081959109  2.4866701297356029 14.9999999999999982
  0.7515220279507887  0.1407282781033641 21.5228835772472387
  2.5863074412203222  1.2000421303597277 22.8957894419913757
  0.7515220279507894  2.2593559826160914 20.1499777125031088
