Cd I  Sr Cl
 1.0000000000000000
     4.3935764247833671   -0.0000000000000000    0.0000000000000000
    -2.1967882123916844    3.8049487973308058    0.0000000000000000
     0.0000000000000000    0.0000000000000000   39.3164007876123662
 Cd  I   Sr  Cl 
   1   2   1   2
Cartesian
  0.6434070467612136  0.8310771512118674 16.7205164217779156
  2.8401952591528965  2.0993934169888027 18.4410328435558171
  0.6434070467612131  3.3677096827657378 15.0000000000000000
  0.6847536692198326  0.9245694003869281 22.9200839635421083
  2.8815418816115166  2.1928856661638645 24.3164007876123591
  0.6847536692198322  3.4612019319408005 21.5237671394718610
