W  Te Ti Te
 1.0000000000000000
     3.5791347647656599    0.0000000000000000    0.0000000000000000
    -1.7895673823828300    3.0996216298551023    0.0000000000000000
     0.0000000000000000    0.0000000000000000   43.2250542415171921
 W   Te  Ti  Te 
   1   2   2   2
Cartesian
 -0.3459683204733837  1.2728635057952753 16.8119622132334676
  1.4435990619094465  2.3060707157469760 18.6239244264669317
  1.4435990619094465  2.3060707157469760 15.0000000000000000
  1.9593147521406915  1.2851997282254684 24.1307763390625354
  1.9593147521406915  1.2851997282254684 26.5098927178117876
  0.1697473697578618  2.3184069381771688 22.4156178040049276
  0.1697473697578618  2.3184069381771688 28.2250542415171921
