Hf S  Ni Se
 1.0000000000000000
     3.5969646555003614   -0.0000000000000000    0.0000000000000000
    -1.7984823277501807    3.1150627681780545    0.0000000000000000
    -0.0000000000000000    0.0000000000000000   38.8905091329920509
 Hf  S   Ni  Se 
   1   2   1   2
Cartesian
  0.5056019412924164  0.6940190911448643 16.4481043019908562
  2.3040842690425967  1.7323733472042158 17.8962086039820498
  0.5056019412924164  2.7707276032635670 15.0000000000000000
  0.6672997582523108  0.6803211031629053 22.6451681889752408
  2.4657820860024913  1.7186753592222566 23.8905091329920509
  0.6672997582523106  2.7570296152816081 21.3998272454970859
