Cl Pt Ru Cl
 1.0000000000000000
     3.6122584195998968    0.0000000000000002    0.0000000000000000
    -1.8061292087628069    3.1288753065980881    0.0000000000000000
    -0.0000000000000002    0.0000000000000000   39.9934109017833777
 Cl  Pt  Ru  Cl 
   2   2   1   2
Cartesian
 -0.6870142571236464  1.7850387900873812 15.0000000000000000
  2.9241351703784768  1.7861941673061710 19.1833300419795165
  1.1188226652275177  0.7431092349417175 17.8345471777233797
  1.1190384178499331  2.8285962802689104 16.3507841280650084
  0.8167266271717826  0.2470974733921485 23.7660347521677799
  2.6228558373174460  1.2900559089248445 24.9934109017833777
  0.8167266278632117  2.3330143444575402 22.5386586130707478
