Ge Cl In Se In
 1.0000000000000000
     4.1585734095881728   -0.0000000000000002    0.0000000000000000
    -2.0792867047940864    3.6014302162069054    0.0000000000000000
     0.0000000000000011    0.0000000000000017   43.9705532351543127
 Ge  Cl  In  Se  In 
   2   2   1   2   1
Cartesian
  1.1614477921217612  0.2606418905552627 17.1900136315555052
  1.1614477957540219  2.6615953680265343 17.8618516334689801
  1.1614477921217612  0.2606418905552622 15.0000000000000000
  1.1614477957540221  2.6615953680265343 20.0518652577974024
  0.8016442869517408  3.2726828764255367 27.7001374860353735
  2.8809394598788343  2.0718399821050109 23.6148252531762708
  0.8014884707423051  0.8715072744653825 28.9705532351543127
  0.8014969359219718  3.2728998959323232 24.8852332178643820
