Si F  I  Pt
 1.0000000000000000
     3.9535045224962726    0.0000237985287992    0.0000000000000000
    -1.9767316425418124    3.4238681537960693    0.0000000000000000
     0.0000000000000011    0.0000000000000022   41.2935251250720015
 Si  F   I   Pt 
   2   2   2   2
Cartesian
  1.3739780340172054  0.7735090085315621 16.6424290354395517
  1.3739917778549595  3.0560957105718622 17.3462560958598786
  1.3739780340172054  0.7735090085315617 15.0000000000000000
  1.3739917778549595  3.0560957105718627 18.9886851313004463
 -0.7467984871658829  1.3106202869896602 21.8970381476381100
  3.2065524456933034  1.3108147106522128 26.2935251250720015
  1.2297202064716917  0.1693566206848035 24.8046334311122294
  1.2297672589233473  2.4519082132401597 23.3851222666321128
