I  Cd Hg I 
 1.0000000000000000
     4.3940013804429068    0.0008383076656587    0.0000000000000000
    -2.1962687105045049    3.8125718920812446    0.0000000000000000
     0.0000000000000033    0.0000000000000000   42.9578065188512355
 I   Cd  Hg  I  
   2   2   1   2
Cartesian
  1.2446213097960344 -0.3911153945773786 14.9999999999999982
  1.2562372587725716  4.6607432105319271 20.9102076548876994
  1.2614539401122076  2.1214441735652398 19.2986420562647361
  1.2425013611718716  2.1459828982564026 16.6116177631989359
  0.7543659525176787  0.3661009826899432 26.2145560029414213
  2.9516106359781156  1.6375171518274638 27.9578065188512355
  0.7548539389956443  2.9080950132993260 24.4713054870316071
