Hg Se Cd
 1.0000000000000000
     4.4582433912281525   -0.0000000000000000    0.0000000000000000
    -2.2291216943423651    3.8621751116376770    0.0000000000000000
     0.0000000000000000    0.0000000000000000   37.7853221236947761
 Hg  Se  Cd 
   1   3   2
Cartesian
  2.4322121408870041  1.7193132317347986 15.3939973822751668
  0.2030904456968324  3.0067049356140241 15.0000000000000018
  1.7918191424861720  0.6549157582931066 19.1967305074385344
  1.7921766873639826  3.2287535656209561 22.7853221236947761
  1.7914195049112414  0.6551216556971571 22.0870476108230456
  1.7925782789276723  3.2285470773637148 19.8947933447382468
