Zn Br Zr S 
 1.0000000000000000
     3.7401894433957477    0.0000000000000000    0.0000000000000000
    -1.8700947216978743    3.2390990729470972    0.0000000000000000
    -0.0000000000000000    0.0000000000000000   39.2500408210333944
 Zn  Br  Zr  S  
   1   2   1   2
Cartesian
  0.5031913265695387  0.6883026809955199 16.4825986053316065
  2.3732860482674112  1.7680023719778855 17.9651972106632272
  0.5031913265695388  2.8477020629602512 15.0000000000000036
  0.5417485558066480  0.6713010374725525 22.8041583782893298
  2.4118432775045213  1.7510007284549183 24.2500408210333944
  0.5417485558066476  2.8307004194372842 21.3582759355452012
