Sn Te Cd I 
 1.0000000000000000
     4.2485757638002450   -0.0000000000000000    0.0000000000000000
    -2.1242878819001225    3.6793745413538868    0.0000000000000000
    -0.0000000000000000    0.0000000000000000   38.5736503061303111
 Sn  Te  Cd  I  
   1   1   1   2
Cartesian
  2.3238477459175479  1.4083197875409053 16.6861605505646438
  0.1995598640174255  2.6347779679922003 15.0000000000000000
  0.7763171010287602  0.2688924236536208 21.8531338843524061
  2.9006049829288822  1.4953506041049163 23.5736503061303111
  0.7763171010287604  2.7218087845562118 20.1326174625744905
