Br Cu S  Zn
 1.0000000000000000
     3.9376324410572705    0.0000000000000000    0.0000000000000000
    -1.9688162182793971    3.4111594782463159    0.0000000000000000
    -0.0000000000000000    0.0000000000000000   40.2137492991159178
 Br  Cu  S   Zn 
   2   2   2   2
Cartesian
  1.2416884100281582  0.8960258444175790 15.0000000000000000
  1.2426034433675448  3.1691860301145613 18.6331282326220524
  1.2413422632925202  0.8962527558564666 17.4857902901367552
  1.2429474916313925  3.1689599423522949 16.1476785051133049
  1.2364221208151802  0.8604179304149450 22.0930066572128361
  1.2364931491981401  3.1343259106320649 25.2137492991159107
  1.2362945967624279  0.8604666018846431 24.6744667462221834
  1.2366206883515192  3.1342773688832755 22.6324350616921315
