Al Te Pb Se
 1.0000000000000000
     4.0572572464900460   -0.0000000000000000    0.0000000000000000
    -2.0286286232450230    3.5136878451488816    0.0000000000000000
     0.0000000000000000    0.0000000000000000   42.0108172521679961
 Al  Te  Pb  Se 
   2   2   1   2
Cartesian
  2.4590614612222783  1.6576196927374980 23.1574070216672609
  2.4590614612222783  1.6576196927374980 25.7312254027310559
  0.4304328379772552  2.8288489744537917 21.8778151722304024
  0.4304328379772552  2.8288489744537917 27.0108172521679890
  0.0268445690457990  0.7482040429916264 16.6690991565004580
  2.0554731922908216  1.9194333247079205 18.3381983130009090
  0.0268445690457987  3.0906626064242149 15.0000000000000018
