Br Cd I  Pt
 1.0000000000000000
     4.0334666800648904    0.0014262922536970    0.0000000000000000
    -2.0154881158266673    3.4989352339315003    0.0000000000000000
     0.0000000000000031    0.0000000000000000   42.1485402459120166
 Br  Cd  I   Pt 
   2   2   2   2
Cartesian
  1.2390234052067133 -0.3310042840827360 14.9999999999999982
  1.2521454514619221  4.3110987058657741 20.7228492099077997
  1.2519378360825173  1.9786303993905729 19.2010592037222949
  1.2388244127044807  2.0017928087620631 16.5215258816320940
 -0.7465226049114662  1.2378507437150985 22.7520532684781358
  3.2867874400740522  1.2394513824648232 27.1485402459120237
  1.2695643869913698  0.0720325284652175 25.6596485519522552
  1.2704285042043106  2.4050955738792581 24.2401373874721386
