Pb Se Sn Se
 1.0000000000000000
     3.9320241793144945    0.0000000000000000    0.0000000000000000
    -1.9660120896572473    3.4052328275810111    0.0000000000000000
     0.0000000000000000    0.0000000000000000   39.9082736413640049
 Pb  Se  Sn  Se 
   1   2   1   2
Cartesian
  0.6278513541664361  0.8287535689801702 16.6690991565004545
  2.5938634438236834  1.9638311781738407 18.3381983130009090
  0.6278513541664359  3.0989087873675114 15.0000000000000000
  0.7445472567234057  0.7533282879036698 23.3153426217898030
  2.7105593463806530  1.8884058970973401 24.9082736413640049
  0.7445472567234057  3.0234835062910101 21.7224116022155371
