Ga Te In Se
 1.0000000000000000
     4.1022303792474233   -0.0000000000000000    0.0000000000000000
    -2.0511151896237116    3.5526357206045396    0.0000000000000000
     0.0000000000000000    0.0000000000000000   44.3289031823801523
 Ga  Te  In  Se 
   2   2   2   2
Cartesian
  2.3761942325185839  1.2877909692404548 16.2730454743835047
  2.3761942325185839  1.2877909692404548 18.7468688976248323
  0.3250790428948730  2.4720028761086343 15.0000000000000000
  0.3250790428948730  2.4720028761086343 20.0199143598030744
  2.3518126633576322  1.6012554276881905 25.2381272452515191
  2.3518126633576322  1.6012554276881905 28.0523729586377861
  0.3006974737339210  2.7854673345563703 23.9615969991113928
  0.3006974737339210  2.7854673345563703 29.3289031823801594
