Pb S  Sn Se
 1.0000000000000000
     3.9069771681272596   -0.0000000000000000    0.0000000000000000
    -1.9534885840636298    3.3835414796039922    0.0000000000000000
    -0.0000000000000000    0.0000000000000000   38.1567735116659321
 Pb  S   Sn  Se 
   1   1   1   2
Cartesian
  2.1847659553532592  1.3564700566604466 16.4391638847389387
  0.2312773712896298  2.4843172165284440 15.0000000000000000
  0.7858221755428509  0.3556740725831875 21.5638424920917267
  2.7393107596064805  1.4835212324511848 23.1567735116659321
  0.7858221755428509  2.6113683923191822 19.9709114725174608
