I  Cu S  Zr
 1.0000000000000000
     4.1861570521569114    0.0000000000000000    0.0000000000000000
    -2.0930785236872564    3.6258200833737777    0.0000000000000000
     0.0000000000000000    0.0000000000000000  -40.4438818685213306
 I   Cu  S   Zr 
   2   2   2   2
Cartesian
  1.6151148333265199  0.8978759297644912 -18.8558029306399995
  1.6151148139898679  3.3150893307664102 -15.0000000000000000
  1.6151148333265202  0.8978759297644915 -16.2345038988799999
  1.6151148139898677  3.3150893307664093 -17.6187037761600038
  1.0773515760004488  0.8984089692738981 -25.4438818685213342
  1.0776361455246195  3.3151673227613272 -22.1160201524097104
  1.0774216337890890  0.8983266253503832 -22.8200732657796124
  1.0775660767664803  3.3152496696410978 -24.7397907488188622
