Ga S  Ni Se
 1.0000000000000000
     3.5935376038641218    0.0000000000000000    0.0000000000000000
    -1.7967688019320609    3.1120948544009899    0.0000000000000000
     0.0000000000000000    0.0000000000000000   41.1280384270652632
 Ga  S   Ni  Se 
   2   2   1   2
Cartesian
  2.0203623664345667  1.4461124787935837 16.0940275853641523
  2.0203623664345667  1.4461124787935837 18.5727461466075034
  0.2235935645025060  2.4834774302605798 14.9999999999999964
  0.2235935645025060  2.4834774302605798 19.6667737319714959
 -0.1928214664000119  0.6600860376420388 24.8826974830484602
  1.6039473355320486  1.6974509891090352 26.1280384270652632
 -0.1928214664000121  2.7348159405760319 23.6373565395703054
