Al S  Cd F 
 1.0000000000000000
     3.5480569194412066   -0.0000000000000000    0.0000000000000000
    -1.7740284597206011    3.0727074263092469    0.0000000000000000
     0.0000000000000002   -0.0000000000000000   35.2191001143239149
 Al  S   Cd  F  
   2   2   1   2
Cartesian
  1.7906528304029148  1.5198829720368403 16.0691806254429004
  1.7906528304029148  1.5198829720368403 18.6673481735629565
  0.0166243706823128  2.5441187808065897 15.0000000000000000
  0.0166243706823128  2.5441187808065897 19.7365287990058356
 -0.2867729357245966  0.9568247608113175 19.2019384322947353
  1.4872555239960059  1.9810605695810664 20.2191001143239149
 -0.2867729357245982  3.0052963783508151 18.1847767502655877
