Ti Br Se Ir
 1.0000000000000000
     3.4400830187803741   -0.0000000000000000    0.0000000000000000
    -1.7200415084168004    2.9841132707249352    0.0000000000000000
    -0.0000000000000000    0.0000000000000000   41.7895339915325224
 Ti  Br  Se  Ir 
   1   2   2   2
Cartesian
 -0.4075268030531751  1.3553527737793660 16.6938534583278368
  1.3125147066614744  2.3500571973543445 18.3877069173080088
  1.3125147066614744  2.3500571973543445 15.0000000000000018
  1.1063633483018358  0.6749254632902492 22.0147902548856074
  1.1061064203104043  2.6635080122093369 26.7895339915325224
  1.1060368647408787  0.6772880331127027 25.4050437857558649
  1.1064330071530182  2.6611434450397935 23.3993113373390216
