Si F  Cd Br
 1.0000000000000000
     4.0031898752351953    0.0000000000000000    0.0000000000000000
    -2.0015949376152209    3.4668641281252102    0.0000000000000000
     0.0000000000000013    0.0000000000000022   41.0571880759794468
 Si  F   Cd  Br 
   2   2   1   2
Cartesian
  1.2281610786280195  0.6807727421208810 16.6424290354395517
  1.2281610766384288  2.9920154942043538 17.3462560958598786
  1.2281610786280195  0.6807727421208805 15.0000000000000036
  1.2281610766384288  2.9920154942043538 18.9886851313004499
  0.7930232816911390  0.1071736813304454 24.4905802252634999
  2.7946182193095295  1.2627950573721818 26.0571880759794539
  0.7930232816927237  2.4184164334139178 22.9239723745475601
