Br Pt Ga S  Ga
 1.0000000000000000
     3.7060360474729719    0.0000194514724014    0.0000000000000000
    -1.8530011736221059    3.2095554982671053    0.0000000000000000
    -0.0000000000000002   -0.0000000000000000   42.8809776043084341
 Br  Pt  Ga  S   Ga 
   2   2   1   2   1
Cartesian
 -0.5783743801060506  1.2919948304934681 15.0000000000000000
  3.1275363112654340  1.2921542551933420 19.3348512724562163
  1.2744396367534991  0.2221617340244670 17.8923023562523369
  1.2744822302626808  2.3618345696526464 16.4415417443947689
  0.6445450084002233  2.9063911031582341 26.7923768180278081
  2.4976180598666144  1.8365183192678185 23.2300849181165248
  0.6443387517403698  0.7668005763768211 27.8809776043084341
  0.6444106315160316  2.9064832907111633 24.3186845302133854
