Hg Te I  Au
 1.0000000000000000
     4.7619040151498435   -0.0000000000000000    0.0000000000000000
    -2.3809520075749209    4.1241640772991381    0.0000000000000000
     0.0000000000000000    0.0000000000000000   34.4993505862518361
 Hg  Te  I   Au 
   1   1   1   1
Cartesian
  1.1159097535854601  2.3969924252155810 15.5127096401301827
 -1.2650422539894612  3.7717137843152937 15.0000000000000000
  0.9992123346816237  2.0896373468809770 19.4993505862518361
  3.3801643422565464  3.4645706407168242 19.4993505862518361
