Mo Te Ge S 
 1.0000000000000000
     3.4954754228744793    0.0000000000000000    0.0000000000000000
    -1.7477377114372397    3.0271705145134522    0.0000000000000000
    -0.0000000000000000    0.0000000000000000   40.0944556644004209
 Mo  Te  Ge  S  
   1   2   1   2
Cartesian
 -0.7746908974801929  1.4469997275319071 23.2893556644004214
  0.9730468139570465  2.4560565657030584 25.0944556644004209
  0.9730468139570465  2.4560565657030584 21.4842556644004219
  0.7213489721981772  1.0747339344041176 16.3970091258366857
  2.4690866836354166  2.0837907725752682 17.7940182516731795
  0.7213489721981772  3.0928476107464187 15.0000000000000000
