W  S  B  P 
 1.0000000000000000
     3.2008848763369531    0.0000000000000000    0.0000000000000000
    -1.6004424381684765    2.7720476174972131    0.0000000000000000
     0.0000000000000000    0.0000000000000000   37.0803246974573000
 W   S   B   P  
   1   2   1   1
Cartesian
  0.0414183420296900  0.8326092958332229 20.5075272594711109
  1.6418607801981662  1.7566251683322938 22.0803246974573000
  1.6418607801981662  1.7566251683322938 18.9347298214849253
  0.4599866388466444  2.0944473065472553 15.0000000000000018
  2.0604290770151215  1.1704314340481843 15.0000000000000018
