Cd F  Hf S 
 1.0000000000000000
     3.5821451291163484   -0.0000000000000000    0.0000000000000000
    -1.7910725645581720    3.1022286818574507    0.0000000000000000
     0.0000000000000002   -0.0000000000000000   38.3367429888186564
 Cd  F   Hf  S  
   1   2   1   2
Cartesian
  0.8153166406955079  0.9988028471322817 16.0171616820291440
  2.6063892052536812  2.0328790744180987 17.0343233640583236
  0.8153166406955064  3.0669553017039157 15.0000000000000000
  0.6619808987803957  0.7498320841834323 21.8886386868274627
  2.4530534633385703  1.7839083114692493 23.3367429888186564
  0.6619808987803971  2.8179845387550664 20.4405343848366066
