Br Hg Ga Te Ga
 1.0000000000000000
     4.1638783987491905    0.0010674728082233    0.0000000000000000
    -2.0810071242579529    3.6125581861987830    0.0000000000000000
     0.0000000000000036    0.0000000000000000   43.9765230334056767
 Br  Hg  Ga  Te  Ga 
   2   2   1   2   1
Cartesian
  1.3696407577411149 -0.9867078617420931 15.0000000000000000
  1.3802194470350417  3.8084503833155594 20.7696522731609825
  1.3847024443449751  1.3971847703055298 19.2178916173209409
  1.3657113958749529  1.4242401490758287 16.5512692941072110
  0.8884270679046458  3.0959950062913824 27.7149000673895962
  2.9701060552513803  1.8921411277362838 23.9878692927397630
  0.8877947621999008  0.6872793752112895 28.9765230334056767
  0.8884666547201087  3.0959836644899790 25.2495043399450871
