Sn Se Cd Br
 1.0000000000000000
     3.9844428102810339   -0.0000000000000000    0.0000000000000000
    -1.9922214051405174    3.4506286936296355    0.0000000000000000
     0.0000000000000000    0.0000000000000000   38.2216093886613137
 Sn  Se  Cd  Br 
   1   1   1   2
Cartesian
  2.2155608327431300  1.0085047628777928 16.5586206887278209
  0.2233394276026135  2.1587143274210043 15.0000000000000000
  0.8493748703787711  0.0025227546453721 21.6550015379453598
  2.8415962755192883  1.1527323191885834 23.2216093886613137
  0.8493748703787711  2.3029418837317950 20.0883936872294200
