Sn Se Br Cu
 1.0000000000000000
     3.9297285957195132   -0.0000000000000000    0.0000000000000000
    -1.9648642967308492    3.4040587761737235    0.0000000000000000
     0.0000000000000000    0.0000000000000000  -38.9425694132691689
 Sn  Se  Br  Cu 
   1   1   2   2
Cartesian
  2.6933985865501344  1.1679675315494171 -22.3839487245413515
  0.7285342890666806  2.3026537902739914 -23.9425694132691724
  1.3103981252926988  1.0200017807963857 -18.6331282326220524
  1.3113113211802667  3.2884301345913860 -15.0000000000000000
  1.3100526733628892  1.0202282198942600 -16.1473379424853007
  1.3116546788504606  3.2882045174555601 -17.4854497275087510
