S  Hf Tl Se Tl
 1.0000000000000000
     4.1885558630265827    0.0000000000000000    0.0000000000000000
    -2.0942779303285941    3.6279284123426434    0.0000000000000000
    -0.0000000000000000    0.0000000000000000   42.5340569646530184
 S   Hf  Tl  Se  Tl 
   2   2   1   2   1
Cartesian
  1.4823118925552565  0.3994382416626758 15.0000000000000000
  1.4826392448903232  2.8175369504387247 18.3254866465823731
  1.4824401392399533  0.3993125945405621 17.6045811352982824
  1.4825109881684417  2.8176626028097567 15.7209963454440533
  0.6604071274816312  3.5467088895303207 26.2499443682238010
  2.7545377738812808  2.3368559565705072 22.0711443744955815
  0.6603038895408411  1.1276048194471131 27.5340569646530184
  0.6601566004447190  3.5471228922199969 23.3552536275450180
