Sn S  Cl Pd
 1.0000000000000000
     3.7101906466607582   -0.0000057074165551    0.0000000000000000
    -1.8551002668350800    3.2130933065486058    0.0000000000000000
     0.0000000000000001   -0.0000000000000000  -38.1723357200563811
 Sn  S   Cl  Pd 
   1   1   2   2
Cartesian
  2.0932032980610997  1.2824806430678737 -21.7124885583225620
  0.2381063268958203  2.3535136477229268 -23.1723357200563740
 -0.8922466057498373  1.5112891140820786 -19.0602727285529134
  2.8179966402760748  1.5111939481899350 -15.0000000000000036
  0.9626288863130106  0.4400390207490418 -16.2782036948100632
  0.9626215000852578  2.5821248939447599 -17.7840570374770834
