Cr Te Hf Cl
 1.0000000000000000
     3.4097737473304037    0.0000000000000000    0.0000000000000000
    -1.7048868736652019    2.9529506863453916    0.0000000000000000
     0.0000000000000000    0.0000000000000000   40.8522405292567896
 Cr  Te  Hf  Cl 
   1   2   1   2
Cartesian
  0.3516700371593272  1.2219308639431348 16.7062363127964844
  2.0565569108245287  2.2062477593915983 18.4124726255929652
  2.0565569108245287  2.2062477593915983 15.0000000000000000
  0.3812118418521203  1.4012912874077346 24.1222834374225457
  2.0860987155173221  2.3856081828561981 25.8522405292567967
  2.0860987155173221  2.3856081828561981 22.3923263455882910
