Pb S  Pb Se
 1.0000000000000000
     4.8023150873557068    0.0000000000000000    0.0000000000000000
    -2.4011575436778534    4.1589268626273279    0.0000000000000000
     0.0000000000000000    0.0000000000000000   38.5705052505908412
 Pb  S   Pb  Se 
   1   2   1   2
Cartesian
  0.2228221038654866  1.5909939057312956 16.0751107127686303
  2.6239796475433397  2.9773028599404046 17.1502214255372607
  2.6239796475433397  2.9773028599404046 15.0000000000000000
  0.2997432738117353  1.7715032328022464 22.3574968065080100
  2.7009008174895883  3.1578121870113556 23.5705052505908412
  2.7009008174895883  3.1578121870113556 21.1444883624251716
