Pb O  Ru Cl
 1.0000000000000000
     3.5930414778606736   -0.0000000000000000    0.0000000000000000
    -1.7965207389303370    3.1116651966785254    0.0000000000000000
     0.0000000000000000    0.0000000000000000  -36.9830656557926147
 Pb  O   Ru  Cl 
   1   1   1   2
Cartesian
  2.1909032357087788  1.2693779847363942 -21.0402252538216032
  0.3943824967784419  2.3065997169625696 -21.9830656557926147
  0.7085406993660039  0.1670061380513581 -16.2273761496155977
  2.5050614382963419  1.2042278702775331 -15.0000000000000018
  0.7085406993660053  2.2414496025037081 -17.4547522887126334
