Cl Pd Pt S 
 1.0000000000000000
     3.6209859792465462   -0.0000057074165551    0.0000000000000000
    -1.8104979331279742    3.1358397984317565    0.0000000000000000
    -0.0000000000000001    0.0000000000000000   39.7820999177397283
 Cl  Pd  Pt  S  
   2   2   1   2
Cartesian
 -0.6275712845251923  1.8256371638141651 15.0000000000000000
  2.9934660294354312  1.8255441488029009 19.0602727285529099
  1.1827071988936928  0.7801434594040320 17.7820690337428502
  1.1826999110148892  2.8707263790351707 16.2762156910758300
  0.7348812822730408  0.2722398488525652 23.5500725482392568
  2.5453726240614136  1.3175159767187805 24.7820999177397283
  0.7348779866032398  2.3627978120015509 22.3180451787387852
