Ga Te Ga Te
 1.0000000000000000
     4.1393472610958693   -0.0000000000000000    0.0000000000000000
    -2.0696736333961221    3.5848158474107947    0.0000000000000000
     0.0000000000000000    0.0000000000000000   43.6450851364901737
 Ga  Te  Ga  Te 
   1   2   3   2
Cartesian
 -0.0057542845035838  3.4474657790000318 27.3834621704740897
  2.0639695353407315  2.2525036946093806 23.6564313958242600
 -0.0057651437101997  1.0576007710982402 28.6450851364901737
 -0.0057149279992612  3.4474545158896257 24.9180664430295877
  2.5227623052769075  1.4764322518594990 16.2730454743835047
  2.5227623052769075  1.4764322518594990 18.7468688976248323
  0.4530886737795772  2.6713708676630969 15.0000000000000000
  0.4530886737795772  2.6713708676630969 20.0199143598030780
