S  Hf I  Zn
 1.0000000000000000
     4.1698004538105042    0.0000000000000035    0.0000000000000000
    -2.0835142572579342    3.6124852369038818    0.0000000000000000
     0.0000000000000013    0.0000000000000022   41.9407428429819760
 S   Hf  I   Zn 
   2   2   2   2
Cartesian
  0.7732328715669337  0.8026009760416365 15.0000000000000000
  0.7744825383273968  3.2104064490248243 18.3254866465823731
  0.7733604959912208  0.8024758637676043 17.6045811352982859
  0.7743549039128743  3.2105315665254315 15.7209963454440533
  0.5320444272643688  0.9796929031627862 21.6373928095454779
  0.5218031567084124  3.3774020456441289 26.9407428429819760
  2.6056792550069590  2.1706873824234072 25.4747865484409672
  2.6183178936790017  2.1869227750081417 23.1032420456603127
