Br Hg In Se In
 1.0000000000000000
     4.1319926726341834    0.0010674728082233    0.0000000000000000
    -2.0650642583522627    3.5849083731488394    0.0000000000000000
     0.0000000000000036    0.0000000000000000   44.0028988364729230
 Br  Hg  In  Se  In 
   2   2   1   2   1
Cartesian
  1.2203957563055960 -0.6473759113333499 14.9999999999999982
  1.2309029136452976  4.1110865713017199 20.7696522731609790
  1.2353468162292693  1.7182735969259768 19.2178916173209373
  1.2165012489640448  1.7451218924425116 16.5512692941072075
  0.7993975584116101  3.0584243225342163 27.7324830873539909
  2.8650915213163253  1.8634461611788571 23.6471708544948811
  0.7986212953495817  0.6679084044409382 29.0028988364729230
  0.7992512053853241  3.0586403407857436 24.9175788191829994
