Pt Se Zn Br
 1.0000000000000000
     3.7731836419903191    0.0000000000000000    0.0000000000000000
    -1.8865918209951595    3.2676728871075045    0.0000000000000000
     0.0000000000000000    0.0000000000000000   38.9239598188847538
 Pt  Se  Zn  Br 
   1   2   1   2
Cartesian
  0.6232204132680619  0.8641974836153461 16.3098087278973871
  2.5098122342632214  1.9534217793178477 17.6196174497051317
  0.6232204132680617  3.0426460750203490 15.0000000000000000
  0.6000701910482370  0.8696331196527737 22.4413612135531331
  2.4866620120433955  1.9588574153552751 23.9239598188847538
  0.6000701910482373  3.0480817110577765 20.9587626082215301
