Br Cd Si F 
 1.0000000000000000
     4.0242658170067340    0.0014024937248978    0.0000000000000000
    -2.0109083029991588    3.4909342494465121    0.0000000000000000
     0.0000000000000045    0.0000000000000022   42.0237010314309174
 Br  Cd  Si  F  
   2   2   2   2
Cartesian
  1.1267018740886068 -0.2358901332930017 14.9999999999999982
  1.1397704054248641  4.3955841214456148 20.7228492099077997
  1.1395751125627340  2.0684562904332435 19.2010592037222949
  1.1264914849236960  2.0915657333618354 16.5215258816320940
  1.2221104503190181  0.9288842043746557 24.6774449355700227
  1.2229268519868319  3.2566412019132649 25.3812719959903532
  1.2221104503190179  0.9288842043746552 23.0350159001304746
  1.2229268519868322  3.2566412019132653 27.0237010314309174
