Mo Se Ti Cl
 1.0000000000000000
     3.2993882900702536    0.0000000000000000    0.0000000000000000
    -1.6496941450351268    2.8573540761497394    0.0000000000000000
     0.0000000000000000    0.0000000000000000   40.5054663076473958
 Mo  Se  Ti  Cl 
   1   2   1   2
Cartesian
  0.2043568178503982  1.4109307759057084 16.6690294767632032
  1.8540509628855248  2.3633821346222881 18.3380589535264065
  1.8540509628855248  2.3633821346222881 14.9999999999999964
  0.3609564210360790  1.2942695501700874 23.9196066168941854
  2.0106505660712055  2.2467209088866671 25.5054663076473958
  2.0106505660712055  2.2467209088866671 22.3337471804800280
