Ge Br Ge Br Te Zn
 1.0000000000000000
     4.2882848703942829   -0.0506467540195987    0.0000000000000001
    -2.1003651164261923    3.7399055433132542    0.0000000000000001
    -0.0000000000000021    0.0000000000000000  -37.2920862108111280
 Ge  Br  Ge  Br  Te  Zn 
   1   1   1   1   2   2
Cartesian
  1.2686712346814875  3.1948280972327874 -18.0293486901658682
 -0.8952398704534146  1.9794664099483972 -15.0000000000000036
 -0.8906535598039873  1.9817959557329834 -17.3501246890710696
 -3.0196549367720467  3.2427568381714673 -20.3794909095427315
  4.2084561275974677 -1.9141115945451959 -22.2920862108111315
  4.2377438982614404  0.5619987339602335 -18.5323388446637765
  4.2083241623010830 -1.9140243382522488 -19.4811277158048632
  4.2378756306653802  0.5619111196948938 -21.3429460038062011
