Sn O  Zr O 
 1.0000000000000000
     3.3057174564503060   -0.0000000000000000    0.0000000000000000
    -1.6528587282251530    2.8628352950196434    0.0000000000000000
    -0.0000000000000000    0.0000000000000000   36.5615462565508551
 Sn  O   Zr  O  
   1   1   1   2
Cartesian
  1.9013841587778373  1.2416507957400595 16.0113936186181398
  0.2485254305526840  2.1959292274132740 15.0000000000000000
  0.4996711367926076  0.2684055482084801 20.6002142841192750
  2.1525298650177604  1.2226839798816946 21.5615462565508551
  0.4996711367926076  2.1769624115549093 19.6388823116876985
