Se Hf Mg I 
 1.0000000000000000
     4.2364914744451223   -0.0000000000000000    0.0000000000000000
    -2.1182457360042677    3.6696131138994339    0.0000000000000000
     0.0000000000000000    0.0000000000000000   40.9666356721561939
 Se  Hf  Mg  I  
   2   2   1   2
Cartesian
  1.2498490252293097  0.7564519014235271 15.0000000000000000
  1.2501113380648206  3.2022924787924545 18.6912765295358660
  1.2499098946945850  0.7563850315895204 17.7686483511876112
  1.2500505432331399  3.2023594007099998 15.9230671053787347
  0.7171199131135824  0.2093194804635446 24.2923180154883305
  2.8353656507422400  1.4325238517633569 25.9666356721561939
  0.7171199139257780  2.6557282230631691 22.6180003588204599
