Mo Se Si S 
 1.0000000000000000
     3.3122756151242942   -0.0000000000000001    0.0000000000000000
    -1.6559570668043215    2.8688116905663641    0.0000000000000000
     0.0000000000000012    0.0000000000000021   39.9605267486619198
 Mo  Se  Si  S  
   1   2   1   2
Cartesian
 -0.3773815825354308  1.2420997492039043 16.6690294767632032
  1.2788164719459916  2.1983703127260257 18.3380589535264065
  1.2788164719459916  2.1983703127260257 14.9999999999999982
  2.6212170926167930  0.8645025876185330 23.6348467029405995
  0.9654690376847234  1.8210367964001031 22.3086247951675816
 -0.6910048288401599  2.7776840482331782 24.9605267486619198
