Pb I  Sr Br
 1.0000000000000000
     4.4456418738201213    0.0000000000000000    0.0000000000000000
    -2.2228209369100607    3.8500387988560787    0.0000000000000000
     0.0000000000000000    0.0000000000000000   41.6618482295504151
 Pb  I   Sr  Br 
   1   2   1   2
Cartesian
  0.1920935566199031  1.5234655485000248 17.0310965280492610
  2.4149144935299636  2.8068118147853842 19.0621930560985184
  2.4149144935299636  2.8068118147853842 15.0000000000000036
  0.3269956088858818  1.7045000588422550 24.8590316300610397
  2.5498165457959425  2.9878463251276144 26.6618482295504151
  2.5498165457959425  2.9878463251276144 23.0562150305716642
