Hf S  Ru Cl
 1.0000000000000000
     3.6226753514495651   -0.0000000000000000    0.0000000000000000
    -1.8113376757247828    3.1373288840190421    0.0000000000000000
     0.0000000000000000    0.0000000000000000  -38.7024306308535557
 Hf  S   Ru  Cl 
   1   2   1   2
Cartesian
  0.6430224020263140  0.8132613515144547 -16.4481043019911937
  2.4543600777510965  1.8590376461874689 -14.9999999999999982
  0.6430224020263138  2.9048139408604832 -17.8962086039820498
  0.8067640027258953  0.9263766772078120 -22.4750544917565200
  2.6181016784506790  1.9721529718808259 -21.2476783421409223
  0.8067640027258967  3.0179292665538395 -23.7024306308535557
