Mo Te Cl Pd
 1.0000000000000000
     3.6078660630147450   -0.0000057074165551    0.0000000000000000
    -1.8039379750120736    3.1244776176794931    0.0000000000000000
    -0.0000000000000001    0.0000000000000000   40.8607983838055873
 Mo  Te  Cl  Pd 
   1   2   2   2
Cartesian
 -0.2530189617746746  1.4333676373337341 16.8050999999999995
  1.5509124218977972  2.4748563716158620 18.6101999999999990
  1.5509124218977972  2.4748563716158620 15.0000000000000000
 -0.7528942204682119  1.7561605757869097 21.8005256552526774
  2.8550229912600722  1.7560678771198210 25.8607983838055873
  1.0508250880267782  0.7144550326344504 24.5825946889955276
  1.0508178146128004  2.7974630746717972 23.0767413463285109
