Tl Se Tl Se
 1.0000000000000000
     4.2258872340994884    0.0000000000000000    0.0000000000000000
    -2.1129436170497442    3.6597256982585131    0.0000000000000000
     0.0000000000000000    0.0000000000000000   44.3249798288857875
 Tl  Se  Tl  Se 
   1   2   3   2
Cartesian
 -0.0891489548694382  3.1837233270871117 19.1787999937282194
  2.0236460647562020  1.9632665356017005 15.0000000000000000
 -0.0892531121427464  0.7434168144432995 20.4629125901574405
 -0.0894017147805571  3.1841409583384341 16.2841092530494400
  2.1844071635104960  1.6353219566522281 25.1439809622801604
  2.1844071635104960  1.6353219566522281 28.0371497464430419
  0.0714635464607516  2.8552305227383989 23.8561509208414222
  0.0714635464607516  2.8552305227383989 29.3249798288857875
