Mo S  Ga N 
 1.0000000000000000
     3.2262561554332976    0.0000000000000000    0.0000000000000000
    -1.6131280777166488    2.7940197897211521    0.0000000000000000
     0.0000000000000000    0.0000000000000000  -37.0611524559701806
 Mo  S   Ga  N  
   1   2   1   1
Cartesian
  0.0414271407436390  0.8399232130104514 -16.5635563231757601
  1.6545552184602879  1.7712631429175019 -14.9999999999999982
  1.6545552184602879  1.7712631429175019 -18.1271126463515202
  0.4600549530530272  2.1091228462496798 -22.0611524559701770
  2.0731830307696759  1.1777829163426290 -22.0611524559701770
