S  Cd I  Hg
 1.0000000000000000
     4.3855218933480096   -0.0000000000000011    0.0000000000000000
    -2.1927609441689255    3.8153380162791750    0.0000000000000000
     0.0000000000000035    0.0000000000000000   42.4195652326046897
 S   Cd  I   Hg 
   2   2   2   2
Cartesian
  1.3772624936655420  1.0273933746966923 15.0000000000000000
  1.3775872807343188  3.5696933681304799 18.2374084038473541
  1.3768841641191158  1.0274653122684323 17.8133498455626693
  1.3779658406061761  3.5696214535642996 15.4239508926595690
  1.4639815789425246 -0.5344411877961233 21.4953334871080202
  1.4735846274946556  4.5177234144481453 27.4195652326046897
  1.4820354318598290  1.9777960430702199 25.7994529118470979
  1.4608337041845545  2.0016823174378655 23.1159917423608761
