Bi Se Bi Sn F 
 1.0000000000000000
     4.9395541981380893   -0.0000000000000000    0.0000000000000000
    -2.4697770990690446    4.2777794189557685    0.0000000000000000
     0.0000000000000011    0.0000000000000020   37.2847289836751870
 Bi  Se  Bi  Sn  F  
   1   2   1   2   2
Cartesian
  0.7664256066325026  3.8047209953255723 18.4333819894917958
  3.2411121081849865  2.3786426057635528 15.0000000000000000
  0.7657552390456374  0.9526539144264354 18.7935956777987627
  0.7706541690483559  3.8054761605528120 15.3602255416993962
  1.5639073282592524  0.2829635832817736 19.7722760350361781
  1.5639073315740117  3.1348165292522858 20.3274223876234004
  1.5639073282592522  0.2829635832817735 17.8149694550405329
  1.5639073315740120  3.1348165292522863 22.2847289836751870
