Bi O  Pb Se
 1.0000000000000000
     3.9877656526808192    0.0000000000000000    0.0000000000000000
    -1.9938828263404096    3.4535063595606212    0.0000000000000000
     0.0000000000000000    0.0000000000000000   40.7175630921532061
 Bi  O   Pb  Se 
   2   2   1   2
Cartesian
  2.2106356938489711  1.4738583633077278 15.1279491455499375
  2.2106356938489711  1.4738583633077278 18.2805653489927167
  0.2167528675085610  2.6250271498279343 15.0000000000000000
  0.2167528675085610  2.6250271498279343 18.4085143927414876
  0.5478228612073659 -0.0318722619460812 24.0484639356527516
  2.5417056875477755  1.1192965245741262 25.7175630921532061
  0.5478228612073658  2.2704653110943336 22.3793647791522972
