Br Ag Ge I 
 1.0000000000000000
     4.3672322379580750   -0.0000000000000000    0.0000000000000000
    -2.1836161177126439    3.7845615548387492    0.0000000000000000
     0.0000000000000000    0.0000000000000000   41.2275865454867585
 Br  Ag  Ge  I  
   2   2   1   2
Cartesian
  1.2724974854354922  0.9124428885185395 14.9999999999999982
  1.2753022887288810  3.4328653661174444 18.8414998721338023
  1.2713783815437252  0.9132139848954803 17.8250159142190086
  1.2764275266331973  3.4320850300232300 16.0173027462489586
  0.7140770367231348  0.1995356966718721 24.4828106515055168
  2.8976931561243031  1.4610562149514545 26.2275865454867585
  0.7140770375673973  2.7225767332310369 22.7380347575242681
