Ge Te S  Ti
 1.0000000000000000
     3.9306856184662915   -0.0000000000000000    0.0000000000000000
    -1.9653428081141575    3.4049193235894752    0.0000000000000000
     0.0000000000000000    0.0000000000000000   38.7093941286399570
 Ge  Te  S   Ti 
   1   1   2   2
Cartesian
  2.2460638254475138  1.2156171151170632 16.5598212339094246
  0.2807210165873647  2.3505902229802214 15.0000000000000000
  1.4867605192930542  1.3621960604085204 20.4846457492987959
  1.4869723433940352  3.6315438490059275 23.7093941286399570
  1.4866917678003477  1.3622038033008717 22.9660924950044070
  1.4870411223608420  3.6315361096659160 21.2279886679800143
