Sn O  S  Ir
 1.0000000000000000
     3.3109628633924082   -0.0000000000000000    0.0000000000000000
    -1.6554814307596080    2.8676963123597892    0.0000000000000000
    -0.0000000000000000    0.0000000000000000   39.3657466698538840
 Sn  O   S   Ir 
   1   1   2   2
Cartesian
  2.1164928122299509  1.7022931572887150 16.0113936186181363
  0.4610113808459453  2.6581919280753112 15.0000000000000000
  1.1443190001357131  0.5453577413586459 19.7154528918337277
  1.1441694673014486  2.4572997932817326 24.3657466698538840
  1.1441267214393580  0.5457095790402210 23.1130783593793367
  1.1443619937134240  2.4569476875309020 20.9681373508480569
