Pb O  Si S 
 1.0000000000000000
     3.3535082045817539   -0.0000000000000001    0.0000000000000000
    -1.6765733615330514    2.9045201605003381    0.0000000000000000
     0.0000000000000012    0.0000000000000021   38.7561508416723868
 Pb  O   Si  S  
   1   2   1   2
Cartesian
 -0.5093842840849523  0.5880886595466360 16.0586191561446796
  1.1674300651251994  1.5562620463800823 17.1172383122893592
 -0.5092637902464020  2.5244354332135277 15.0000000000000000
  2.6362668519627115  0.8267255642597897 22.4304707959510665
  0.9599066039197716  1.7951658779793074 21.1042488881780486
 -0.7171884910103128  2.7637206418118039 23.7561508416723868
