Se Ir Ge S 
 1.0000000000000000
     3.4258403590939217   -0.0000000000000000    0.0000000000000000
    -1.7129201785735741    2.9717787656190104    0.0000000000000000
    -0.0000000000000000    0.0000000000000000   41.4929202605430305
 Se  Ir  Ge  S  
   2   2   1   2
Cartesian
  1.0635914144862664  0.6870778738284891 15.0000000000000000
  1.0633355502328794  2.6674408347567908 19.7747437366469114
  1.0632662826352062  0.6894306782275508 18.3902535308702575
  1.0636607849379889  2.6650860412664548 16.3845210824534142
  0.6246326717008279  0.0518930088570725 25.0959111347065438
  2.3375528515722515  1.0424859307300758 26.4929202605430376
  0.6246326723497524  2.0330788526030790 23.6989020088698581
