In Se In I  Pt
 1.0000000000000000
     4.0237062559950409    0.0000237985287992    0.0000000000000000
    -2.0118325092935736    3.4846646383968336    0.0000000000000000
    -0.0000000000000002   -0.0000000000000000   43.3605484540917345
 In  Se  In  I   Pt 
   1   2   1   2   2
Cartesian
  0.7078017841090808  2.9721186007066005 19.0853122328591063
  2.7196562306110432  1.8102173688348202 15.0000000000000000
  0.7076372741180185  0.6487859845385852 20.3557279819780419
  0.7076592130793020  2.9723285838802811 16.2704079646881112
 -0.7724688347654478  1.5346312597137717 23.9640614766578430
  3.2510811043081844  1.5348287131157909 28.3605484540917345
  1.2391467002395224  0.3731024143754453 26.8716567601319625
  1.2391943441140418  2.6961843732358384 25.4521455956518494
