Br Hg Se Hf
 1.0000000000000000
     4.2224463471393525    0.0010674728082233    0.0000000000000000
    -2.1102910943865534    3.6639474272497266    0.0000000000000000
     0.0000000000000035    0.0000000000000000   42.3066830607352529
 Br  Hg  Se  Hf 
   2   2   2   2
Cartesian
  1.2599153236840703 -0.1609506009964276 14.9999999999999982
  1.2706254157648913  4.7024094571178265 20.7696522731609790
  1.2751802163646655  2.2568482380908428 19.2178916173209373
  1.2559219469618925  2.2842884965428274 16.5512692941072075
  1.3375376606451148  0.9200111729797609 23.6154065311993904
  1.3384203448410643  3.3624313108584731 27.3066830607352529
  1.3375983113266048  0.9199444120004872 26.3840548823869980
  1.3383597685589677  3.3624981238672511 24.5384736365781251
