I  Cd Se Cd
 1.0000000000000000
     4.4267703651787125    0.0008383076656587    0.0000000000000000
    -2.2126532016006966    3.8421737438986883    0.0000000000000000
     0.0000000000000033    0.0000000000000000   42.5867356373791068
 I   Cd  Se  Cd 
   2   2   2   2
Cartesian
  1.3944455473445660 -0.2580233488288839 15.0000000000000018
  1.4061408933702455  4.8330549417990785 20.9102076548876994
  1.4114001135005394  2.2740422508736082 19.2986420562647396
  1.3923061574718081  2.2987715080748390 16.6116177631989395
  1.3364482606532921  0.9856390769358371 23.9981440211228687
  1.3372910887072680  3.5464269366594690 27.5867356373791068
  1.3360514833476744  0.9858438552414603 26.8884611245073799
  1.3376898060954545  3.5462215708638505 24.6962068584225776
