Sn S  Ru Br
 1.0000000000000000
     3.7662209740141845   -0.0000000000000000    0.0000000000000000
    -1.8831104870070925    3.2616430397620553    0.0000000000000000
    -0.0000000000000000    0.0000000000000000   37.6723350492703730
 Sn  S   Ru  Br 
   1   1   1   2
Cartesian
  2.1038478284105619  1.4101415320441617 16.4598471617338085
  0.2207373414034696  2.4973558786315131 14.9999999999999982
  0.6626180434610059  0.2894850610675732 21.3554858953207720
  2.5457285304680974  1.3766994076549253 22.6723350492703730
  0.6626180434610058  2.4639137542422773 20.0386367413711675
