Hf Cl Hf O 
 1.0000000000000000
     3.3019038388582462    0.0000000000000000    0.0000000000000000
    -1.6509519194291231    2.8595326053046008    0.0000000000000000
     0.0000000000000000    0.0000000000000000   39.2699867089529135
 Hf  Cl  Hf  O  
   1   2   1   2
Cartesian
 -0.5313023704275880  1.1377615252512738 16.7299570918342546
  1.1196495490015352  2.0909390603528073 18.4599141836685092
  1.1196495490015352  2.0909390603528073 15.0000000000000000
  0.4045546300170851  0.9252114392458527 23.2975571172194478
  2.0555065494462084  1.8783889743473863 24.2699867089529064
  0.4045546300170851  2.8315665094489200 22.3251275254859927
