Cd Cl Mg Br
 1.0000000000000000
     3.8915664202333451   -0.0000000000000000    0.0000000000000000
    -1.9457832101166730    3.3701953804365452    0.0000000000000000
     0.0000000000000000    0.0000000000000000   39.2038685722229658
 Cd  Cl  Mg  Br 
   1   2   1   2
Cartesian
  0.6179175647639725  0.8980713795289882 16.4378714166122712
  2.5637007748806440  2.0214698396745034 17.8757428332245638
  0.6179175647639725  3.1448682998200188 15.0000000000000000
  0.5563305381438293  0.7666557900333559 22.6968429238072034
  2.5021137482605003  1.8900542501788722 24.2038685722229658
  0.5563305381438288  3.0134527103243882 21.1898172753914409
