Ge Se Sn S 
 1.0000000000000000
     3.6810859886075900    0.0000000000000000    0.0000000000000000
    -1.8405429943037950    3.1879139796491276    0.0000000000000000
    -0.0000000000000000    0.0000000000000000   38.0194584327440737
 Ge  Se  Sn  S  
   1   1   1   2
Cartesian
  2.0643187013729380  1.1697096911773761 16.4473597337136113
  0.2237757070691434  2.2323476843937518 15.0000000000000018
  0.7846116696518415  0.1775396773609774 21.5418870299596499
  2.6251546639556369  1.2401776705773533 23.0194584327440737
  0.7846116696518415  2.3028156637937287 20.0643156271752261
