Cd Br Hg Br
 1.0000000000000000
     4.1026557485830857    0.0000000000000000    0.0000000000000000
    -2.0513278742915437    3.5530041012552154    0.0000000000000000
     0.0000000000000000    0.0000000000000000   39.6818312200681760
 Cd  Br  Hg  Br 
   1   2   1   2
Cartesian
  0.6782476407872857  0.9337529040914967 16.5666078507159398
  2.7295755150788286  2.1180876045099013 18.1332157014318938
  0.6782476407872853  3.3024223049283061 15.0000000000000018
  0.8929173194534148  0.8789070200213971 23.0924236439373729
  2.9442451937449565  2.0632417204398026 24.6818312200681760
  0.8929173194534139  3.2475764208582079 21.5030160678065769
