Ti I  Sn Se
 1.0000000000000000
     3.8168823884231946    0.0000000000000000    0.0000000000000000
    -1.9084411942115973    3.3055171116319100    0.0000000000000000
     0.0000000000000000    0.0000000000000000   40.5967924330451808
 Ti  I   Sn  Se 
   1   2   1   2
Cartesian
 -0.2633207547340034  1.2289451018178892 16.8143657812576173
  1.6451204394775936  2.3307841390285260 18.6287315661405373
  1.6451204394775936  2.3307841390285260 14.9999999999999982
  0.5462755640419509  0.8259554791637217 24.0038614134709789
  2.4547167582535483  1.9277945163743584 25.5967924330451808
  0.5462755640419509  3.0296335535849952 22.4109303938967095
