Sn O  Ni S 
 1.0000000000000000
     3.3481312958987841   -0.0000000000000000    0.0000000000000000
    -1.6740656479493921    2.8995667574540605    0.0000000000000000
    -0.0000000000000000    0.0000000000000000   37.0478276297599081
 Sn  O   Ni  S  
   1   1   1   2
Cartesian
  1.8356558491911228  1.0729521951966343 16.0113936186181398
  0.1615902012417306  2.0394744476813211 15.0000000000000000
  0.7325872829333737  0.2336170064923827 20.8723937015346515
  2.4066529308827658  1.2001392589770694 22.0478276297599081
  0.7325872829333737  2.1666615114617565 19.6969597733093948
