Al Te Al Te
 1.0000000000000000
     4.1238017767473529   -0.0000000000000000    0.0000000000000000
    -2.0619008912107541    3.5712312718067571    0.0000000000000000
     0.0000000000000000    0.0000000000000000   43.6937785202432067
 Al  Te  Al  Te 
   1   2   3   2
Cartesian
  0.1247995350089356  3.1184479905671059 18.8314022027447123
  2.1867445931747875  1.9280415516611917 15.0000000000000000
  0.1247743724016619  0.7375942625871039 20.1000459107870029
  0.1248185478624922  3.1184190941035341 16.2686119692352165
  2.3287550343506438  1.5469365172895551 24.8403682897424787
  2.3287550343506438  1.5469365172895551 27.4141866708062736
  0.2668541450312744  2.7373469412251406 23.5607764403056201
  0.2668541450312744  2.7373469412251406 28.6937785202432067
