Br Pt Zn Br
 1.0000000000000000
     3.7771344061556764    0.0000194514724014    0.0000000000000000
    -1.8885503504534493    3.2711197354260886    0.0000000000000000
    -0.0000000000000002   -0.0000000000000000   40.3750811684420370
 Br  Pt  Zn  Br 
   2   2   1   2
Cartesian
 -0.6552322075463841  2.0940962784052131 15.0000000000000000
  3.1217744376027268  2.0942583880125043 19.3348512724562127
  1.2331271818051772  1.0037420045903220 17.8923023562523369
  1.2331703786184971  3.1844569492555657 16.4415417443947689
  0.5980768113299897  0.3368870435514971 23.8924825631104198
  2.4866496319492901  1.4272732563417942 25.3750811684420370
  0.5980880464129160  2.5176400176596898 22.4098839577788169
