Ge S  Zn Cl
 1.0000000000000000
     3.5436078867866705   -0.0000000000000000    0.0000000000000000
    -1.7718039433933352    3.0688544510081468    0.0000000000000000
     0.0000000000000000    0.0000000000000000   37.7412295542549217
 Ge  S   Zn  Cl 
   1   1   1   2
Cartesian
  1.9882461228029937  1.4599985727924318 16.3610326690029453
  0.2164421794096592  2.4829500564618132 15.0000000000000000
  0.5386555464753378  0.1940895634162696 21.3737625656728056
  2.3104594898686721  1.2170410470856514 22.7412295542549217
  0.5386555464753379  2.2399925307550328 20.0062955770906683
