Ca Cl Hg Br
 1.0000000000000000
     4.1404315148122235   -0.0000000000000000    0.0000000000000000
    -2.0702157574061122    3.5857188744570703    0.0000000000000000
     0.0000000000000000    0.0000000000000000   39.2940838232388217
 Ca  Cl  Hg  Br 
   1   2   1   2
Cartesian
  0.5024639418327241  0.7313494171056918 16.4021708164290665
  2.5726796992388352  1.9265890419247143 17.8043416328581401
  0.5024639418327239  3.1218286667437369 15.0000000000000000
  0.6922522223378982  0.7599779981376400 22.7046762471080186
  2.7624679797440086  1.9552176229566633 24.2940838232388217
  0.6922522223378975  3.1504572477756865 21.1152686709772226
