Se Ti Cd Br
 1.0000000000000000
     4.0518875092688296    0.0000000000000000    0.0000000000000000
    -2.0259437534800737    3.5099664344442547    0.0000000000000000
     0.0000000000000000    0.0000000000000000   40.4647894003944941
 Se  Ti  Cd  Br 
   2   2   1   2
Cartesian
  1.4487840666494307  1.0235047090253744 21.9054579425272138
  1.4488925035632318  3.3628902083186563 25.4647894003944941
  1.4485890581095839  1.0235727877042908 24.5387760785958662
  1.4490875940842418  3.3628221564931824 22.8315425659419731
  0.7205517141075555  0.1494283135449205 16.5666078507159327
  2.7464954691267511  1.3194171250263382 18.1332157014318867
  0.7205517148771163  2.4894059365077563 14.9999999999999964
