Hf I  Ga S 
 1.0000000000000000
     3.7092413190278384    0.0000000000000000    0.0000000000000000
    -1.8546206595139192    3.2122972110450076    0.0000000000000000
     0.0000000000000000    0.0000000000000000   42.4508817964343734
 Hf  I   Ga  S  
   1   2   2   2
Cartesian
 -0.6482273062936191  1.5470387443683207 16.9476853944779791
  1.2063933532202999  2.6178044813833230 18.8953707810581477
  1.2063933532202999  2.6178044813833230 15.0000000000000000
  2.1819667238591411  1.4741106773342507 23.8781356498270227
  2.1819667238591411  1.4741106773342507 26.3568542110703774
  0.3273460643452223  2.5448764143492530 22.7841080644628704
  0.3273460643452223  2.5448764143492530 27.4508817964343734
