B  P  Ga N 
 1.0000000000000000
     3.2421348245972448    0.0000000000000000    0.0000000000000000
    -1.6210674122986224    2.8077711205954188    0.0000000000000000
     0.0000000000000000    0.0000000000000000   33.9884193403454162
 B   P   Ga  N  
   1   1   1   1
Cartesian
  0.2481227233133739  1.9433622842845577 15.0000000000000000
  1.8691901356119973  1.0074385774194181 15.0000000000000000
  0.1568902838383507  2.2326838885203686 18.9884193403454162
  1.7779576961369730  1.2967601816552290 18.9884193403454162
