Ga Se Pt Se
 1.0000000000000000
     3.7863479888494105   -0.0000000000000000    0.0000000000000000
    -1.8931739944247052    3.2790735459117073    0.0000000000000000
     0.0000000000000000    0.0000000000000000   41.4278799503574220
 Ga  Se  Pt  Se 
   2   2   1   2
Cartesian
  2.1257917396147432  1.4823607975896564 16.1770728543176290
  2.1257917396147432  1.4823607975896564 18.6526280641098126
  0.2326177451900381  2.5753853128935589 15.0000000000000000
  0.2326177451900381  2.5753853128935589 19.8297009184262052
 -0.0467668682082571  0.6868919777458908 25.1180712285496739
  1.8464071262164481  1.7799164930497935 26.4278799503574220
 -0.0467668682082573  2.8729410083536959 23.8082625006522868
