Ge Cl S  Zr
 1.0000000000000000
     4.2138822961412945   -0.0000000000000002    0.0000000000000000
    -2.1069411468724288    3.6498308510577582    0.0000000000000000
     0.0000000000000010    0.0000000000000016   41.6738299576469373
 Ge  Cl  S   Zr 
   2   2   2   2
Cartesian
  1.2749118920476117  0.9691555390638699 17.1900136315555017
  1.2749118965269937  3.4023761064357099 17.8618516334689801
  1.2749118920476117  0.9691555390638694 15.0000000000000000
  1.2749118965269939  3.4023761064357099 20.0518652577973988
  1.3653345754369541  0.9194907521986514 23.3459682415353171
  1.3656210288815060  3.3522532708237818 26.6738299576469373
  1.3654050972238088  0.9194078629803420 25.9697768442770354
  1.3655504960525002  3.3523361630179234 24.0500593612377855
