Br Hg Te Zn
 1.0000000000000000
     4.2543126794843911    0.0010674728082233    0.0000000000000000
    -2.1262242605408703    3.6913661404503664    0.0000000000000000
    -0.0000000000000035   -0.0000000000000000  -42.4124470489504830
 Br  Hg  Te  Zn 
   2   2   2   2
Cartesian
  1.5403284889975595 -0.1598549233972058 -27.4124470489504830
  1.5511100733267784  4.7398941903582639 -21.6427947757895005
  1.5557039429622490  2.2760345616604929 -23.1945554316295421
  1.5363002808617772  2.3036801725440958 -25.8611777548432720
  1.3050467138007817  1.1615105268221608 -18.7597473661473586
  1.3057733400593539  3.6225022977033530 -15.0000000000000036
  1.3049148136169655  1.1615956562905838 -15.9487888711410903
  1.3059050133221677  3.6224168097076195 -17.8106071591424282
