Sn Te Zn I 
 1.0000000000000000
     4.1363356190776486   -0.0000000000000000    0.0000000000000000
    -2.0681678095388243    3.5821717246996769    0.0000000000000000
    -0.0000000000000000    0.0000000000000000   38.4283503450772912
 Sn  Te  Zn  I  
   1   1   1   2
Cartesian
  2.2936125306612483  1.1361374332501057 16.6861605505646438
  0.2254447211224239  2.3301946748166644 15.0000000000000000
  0.8476367127510382  0.0682520367493205 21.8009445765649055
  2.9158045222898616  1.2623092783158796 23.4283503450772912
  0.8476367127510378  2.4563665198824385 20.1735388080525162
