Tl Se Ca Br
 1.0000000000000000
     4.2606763425230394    0.0000000000000000    0.0000000000000000
    -2.1303381712615197    3.6898539499283194    0.0000000000000000
     0.0000000000000000    0.0000000000000000   42.5617272136210545
 Tl  Se  Ca  Br 
   2   2   1   2
Cartesian
  2.2361208713138181  1.6500832989619683 16.2878300414387454
  2.2361208713138181  1.6500832989619683 19.1809988256016268
  0.1057827000522984  2.8800346156047416 15.0000000000000000
  0.1057827000522984  2.8800346156047416 20.4688289080443653
 -0.1195036685939753  0.8325889926099694 26.0013542191536118
  2.0108345026675436  2.0625403092527428 27.5617272136210545
 -0.1195036685939756  3.2924916258955168 24.4409812246861691
