Zr Te Cd Cl
 1.0000000000000000
     3.9110607985482133   -0.0000000000000000    0.0000000000000000
    -1.9555303992741067    3.3870780072882050    0.0000000000000000
     0.0000000000000000    0.0000000000000000  -40.2709657192249182
 Zr  Te  Cd  Cl 
   1   2   1   2
Cartesian
 -0.7713503847197875  1.5646527808442072 -16.8615645620743848
  1.1841800145543193  2.6936787832736089 -14.9999999999999964
  1.1841800145543193  2.6936787832736089 -18.7231291241485955
  0.7565451157202780  1.1340271274003293 -23.8330943026126434
  2.7120755149943840  2.2630531298297312 -22.3952228860003473
  0.7565451157202783  3.3920791322591333 -25.2709657192249182
