Sn I  Sn I 
 1.0000000000000000
     4.4976900162696047    0.0000000000000000    0.0000000000000000
    -2.2488450081348028    3.8951138124371232    0.0000000000000000
     0.0000000000000000    0.0000000000000000   41.3323865734375957
 Sn  I   Sn  I  
   1   2   1   2
Cartesian
 -0.3322794889468550  1.6672426194591252 17.0138547965808016
  1.9165655191879476  2.9656138902714990 19.0277095931616067
  1.9165655191879476  2.9656138902714990 15.0000000000000000
  0.3094473322203897  0.9679080482186574 24.4865244576342995
  2.5582923403551918  2.2662793190310317 26.3323865734375957
  0.3094473322203893  3.5646505898434060 22.6406623418310105
