Ti Te Zr I 
 1.0000000000000000
     3.7829206637389259    0.0000000000000000    0.0000000000000000
    -1.8914603318694629    3.2761053952990000    0.0000000000000000
     0.0000000000000000    0.0000000000000000   41.4533833358581560
 Ti  Te  Zr  I  
   1   2   1   2
Cartesian
  0.1715090133991131  1.3406052947675224 16.7885301883608946
  2.0629693452685762  2.4326404265338564 18.5770603767261022
  2.0629693452685762  2.4326404265338564 15.0000000000000000
  0.2489111753948188  1.4615578694413687 24.5142380992690150
  2.1403715072642817  2.5535930012077022 26.4533833358581489
  2.1403715072642817  2.5535930012077022 22.5750928633059189
