Se Ti Hg Br
 1.0000000000000000
     4.0924671668196417    0.0000000000000000    0.0000000000000000
    -2.0462335822554794    3.5451094487601313    0.0000000000000000
     0.0000000000000000    0.0000000000000000   40.6637150428610994
 Se  Ti  Hg  Br 
   2   2   1   2
Cartesian
  1.1732228524925332  0.9183244687100662 15.0000000000000000
  1.1733323753944325  3.2811327156641918 18.5593314578672803
  1.1730258909419602  0.9183932290165800 17.6333181360686524
  1.1735294197472101  3.2810639824799863 15.9260846234147593
  0.6707129111355600  0.3407793615528063 24.0743074667302963
  2.7169464949301605  1.5224825111395170 25.6637150428610994
  0.6707129119051207  2.7041856607262273 22.4848998905995003
