Ti Te Hf S 
 1.0000000000000000
     3.6944807372856987   -0.0000000000000000    0.0000000000000000
    -1.8472403686428494    3.1995141722816776    0.0000000000000000
    -0.0000000000000000    0.0000000000000000   40.2533795620752102
 Ti  Te  Hf  S  
   1   2   1   2
Cartesian
 -0.3510000518226489  1.1996436596947542 16.7885301883608946
  1.4962403168202005  2.2661483837886465 18.5770603767261022
  1.4962403168202005  2.2661483837886465 14.9999999999999982
  0.4223676001094379  0.8806532508273409 23.8052752600840165
  2.2696079687522870  1.9471579749212333 25.2533795620752102
  0.4223676001094379  3.0136626990151258 22.3571709580931639
