Sn I  Br Ag
 1.0000000000000000
     4.4267846867020495   -0.0000000000000000    0.0000000000000000
    -2.2133923420846315    3.8361354883086021    0.0000000000000000
     0.0000000000000000    0.0000000000000000   41.2332120124280195
 Sn  I   Br  Ag 
   1   2   2   2
Cartesian
 -0.6541474117719563  1.6577255662924300 17.0138547965808016
  1.5592449320011994  2.9364373957286301 19.0277095931616067
  1.5592449320011994  2.9364373957286301 15.0000000000000000
  1.1924872298572042  0.8025268487883281 22.3917121402942172
  1.1953302799955141  3.3572962644121702 26.2332120124280266
  1.1913528656418415  0.8033084532446506 25.2167280545132328
  1.1964708618680433  3.3565052943247649 23.4090148865431757
