Ca Br Pd Se
 1.0000000000000000
     4.0599684321775209    0.0000000000000000    0.0000000000000000
    -2.0299842160887605    3.5160358008286119    0.0000000000000000
     0.0000000000000000    0.0000000000000000  -39.9355175699784581
 Ca  Br  Pd  Se 
   1   2   1   2
Cartesian
  0.4458519519535732  1.2958498519136996 -16.7571598031842548
  2.4758361680423340  2.4678617855232368 -14.9999999999999964
  2.4758361680423340  2.4678617855232368 -18.5143196063686410
  0.4341046182137960  1.7794432519776957 -23.7373243594313266
  2.4640888343025567  2.9514551855872324 -22.5391311488739845
  2.4640888343025567  2.9514551855872324 -24.9355175699784617
