Ge Br Ge Br Ge F 
 1.0000000000000000
     4.2487764321155836   -0.0506467540195987    0.0000000000000001
    -2.0806108985233389    3.7051646981225939    0.0000000000000001
    -0.0000000000000033   -0.0000000000000020  -37.4077900634590534
 Ge  Br  Ge  Br  Ge  F  
   1   1   1   1   2   2
Cartesian
  1.8436273892810733  3.0185018753574258 -20.0576478440821937
 -0.3004820841945062  1.8147443355439150 -17.0282991539163291
 -0.2959377689434617  1.8170515906229234 -19.3784238429873952
 -2.4051902585124196  3.0664560376947625 -22.4077900634590570
  3.6045428501539991 -1.3168945607773710 -17.3739866220652814
  3.6337277322213488  1.1363329865869205 -16.7809067367877596
  3.6045428501539991 -1.3168945607773714 -19.1548933276439897
  3.6337277322213488  1.1363329865869209 -15.0000000000000036
