Si F  Cd Cl
 1.0000000000000000
     3.9219515450001832    0.0000000000000000    0.0000000000000000
    -1.9609757724977148    3.3965096703806603    0.0000000000000000
     0.0000000000000012    0.0000000000000022   40.7223969335621163
 Si  F   Cd  Cl 
   2   2   1   2
Cartesian
  1.1854494767204677  0.8402811328062885 16.6424290354395481
  1.1854494747712849  3.1046209130600610 17.3462560958598786
  1.1854494767204677  0.8402811328062880 15.0000000000000000
  1.1854494747712849  3.1046209130600619 18.9886851313004463
  0.5471857300341019 -0.0000880070249245 24.2845255169498166
  2.5081615025349855  1.1320818831019626 25.7223969335621092
  0.5471857300356866  2.2642517732288496 22.8466541003375418
