Mo Te Cl Pt
 1.0000000000000000
     3.5893700396249377    0.0000000000000002    0.0000000000000000
    -1.7946850187753269    3.1090533880883022    0.0000000000000000
    -0.0000000000000002    0.0000000000000000   41.1479908296724801
 Mo  Te  Cl  Pt 
   1   2   2   2
Cartesian
 -0.3452957745464505  1.3942919876135027 16.8051000000000030
  1.4493892456117325  2.4306431169762703 18.6101999999999990
  1.4493892456117325  2.4306431169762703 15.0000000000000000
 -0.6126520224027145  1.7288427892823661 21.9646607876929636
  2.9756160520393551  1.7299908470042651 26.1479908296724801
  1.1817425619819240  0.6935140221871186 24.7992079654163433
  1.1819569475337688  2.7657891781882915 23.3154449157579720
