Zr I  Ga Se
 1.0000000000000000
     3.8267486305110161   -0.0000000000000000    0.0000000000000000
    -1.9133743152555081    3.3140615279198506    0.0000000000000000
     0.0000000000000000    0.0000000000000000   42.5485440124190575
 Zr  I   Ga  Se 
   1   2   2   2
Cartesian
 -0.6485264980135599  1.5656484555693475 16.9391452359630961
  1.2648478172419482  2.6703356315426308 18.8782904725522265
  1.2648478172419482  2.6703356315426308 15.0000000000000000
  2.0624077305355426  1.4845533650015357 23.8959159483104884
  2.0624077305355426  1.4845533650015357 26.3714711581026720
  0.1490334152800351  2.5892405409748189 22.7188430939928594
  0.1490334152800351  2.5892405409748189 27.5485440124190646
