Pb Te Tl Se
 1.0000000000000000
     4.2732712400892616    0.0000000000000000    0.0000000000000000
    -2.1366356200446308    3.7007614511787228    0.0000000000000000
    -0.0000000000000000    0.0000000000000000  -40.5485034862499845
 Pb  Te  Tl  Se 
   1   1   2   2
Cartesian
  2.1699199251128118  1.8991017617577408 -23.8639966042035034
  0.0332843050681811  3.1326889121506483 -25.5485034862499809
  2.3396931679725679  1.4407245203406305 -19.1809988666056235
  2.3396931679725679  1.4407245203406305 -16.2878300824427420
  0.2030575479279369  2.6743116707335384 -20.4688289080443653
  0.2030575479279369  2.6743116707335384 -15.0000000000000000
