Ti Se Cd F 
 1.0000000000000000
     3.5036972593312301   -0.0000000000000000    0.0000000000000000
    -1.7518486296656128    3.0342908337507648    0.0000000000000000
     0.0000000000000002   -0.0000000000000000   39.2192428758082485
 Ti  Se  Cd  F  
   1   2   1   2
Cartesian
 -0.6548291945505014  1.3658174238481862 16.6199398271809429
  1.0970194351151146  2.3772477017651079 18.2398796543619497
  1.0970194351151146  2.3772477017651079 15.0000000000000000
  0.6329113354531883  0.8224344236389038 23.2020811937790725
  2.3847599651188029  1.8338647015558254 24.2192428758082485
  0.6329113354531870  2.8452949794727465 22.1849195117499249
