Pd S  Sn S 
 1.0000000000000000
     3.6246753686516238    0.0000000000000000    0.0000000000000000
    -1.8123376843258119    3.1390609497240316    0.0000000000000000
     0.0000000000000000    0.0000000000000000   38.8998385634567185
 Pd  S   Sn  S  
   1   2   1   2
Cartesian
  0.5234294342845640  0.7065986867766689 16.2450718334045305
  2.3357671186103754  1.7529523366846793 17.4901436668090611
  0.5234294342845640  2.7993059865926897 14.9999999999999982
  0.7338227723693513  0.8831773847407756 22.4222671606722948
  2.5461604566951634  1.9295310346487862 23.8998385634567185
  0.7338227723693513  2.9758846845567972 20.9446957578878710
