Pb O  Mg Cl
 1.0000000000000000
     3.6329198002504404   -0.0000000000000000    0.0000000000000000
    -1.8164599001252206    3.1462008369283696    0.0000000000000000
    -0.0000000000000000    0.0000000000000000   37.2184822533604276
 Pb  O   Mg  Cl 
   1   1   1   2
Cartesian
  2.0067449647834668  1.2163149361446592 15.9428404019710133
  0.1902850646582472  2.2650485484541161 15.0000000000000018
  0.7168959524329368  0.4897620390621277 20.8455763886162906
  2.5333558525581568  1.5384956513715842 22.2184822533604276
  0.7168959524329371  2.5872292636810408 19.4726705238721607
