Ge Te Sn Se
 1.0000000000000000
     3.9041474371613649   -0.0000000000000000    0.0000000000000000
    -1.9520737185806825    3.3810908607016481    0.0000000000000000
    -0.0000000000000000    0.0000000000000000  -38.3139209155300122
 Ge  Te  Sn  Se 
   1   1   1   2
Cartesian
  2.3752880666803380  1.4950561641197140 -21.7540996816205876
  0.4232143480996560  2.6220864510202633 -23.3139209155300193
  0.8459453808204266  0.2040222174635639 -16.5929310195742090
  2.7980190994011092  1.3310525043641133 -15.0000000000000036
  0.8459453808204266  2.4580827912646628 -18.1858620391484749
