I  Cd I 
 1.0000000000000000
     4.3626345235752249    0.0008383076656587    0.0000000000000000
    -2.1805852820706644    3.7854073971969617    0.0000000000000000
     0.0000000000000033    0.0000000000000000   42.8915659960028108
 I   Cd  I  
   2   3   2
Cartesian
  1.2191235784921479 -0.3902218016599769 14.9999999999999982
  1.2306635292940007  4.6256463879440739 20.9102076548876994
  1.2358394911931800  2.1044378223241273 19.2986420562647361
  1.2170222400693318  2.1288017025688362 16.6116177631989359
  0.7243480553323820  0.3102264335296768 26.1710495742249130
  2.9059093103589770  1.5725877710391032 27.8915659960028179
  0.7248360418103473  2.8341108008828715 24.4505331524469973
