Cd Br Pb Se
 1.0000000000000000
     4.0306417168333200   -0.0000000000000000    0.0000000000000000
    -2.0153208584166604    3.4906381203309786    0.0000000000000000
     0.0000000000000000    0.0000000000000000  -39.8562269697287945
 Cd  Br  Pb  Se 
   1   2   1   2
Cartesian
  0.6866999438388510  0.9731227341434465 -23.2896191190128548
  2.7020208022555110  2.1366687742537720 -21.7230112682969008
  0.6866999438388510  3.3002148143640975 -24.8562269697287910
  0.8680243147403878  0.8942081332154921 -16.6690991565004509
  2.8833451731570472  2.0577541733258182 -14.9999999999999964
  0.8680243147403872  3.2213002134361446 -18.3381983130009090
