Hf O  Pt O 
 1.0000000000000000
     3.2011366139805366    0.0000000000000000    0.0000000000000000
    -1.6005683069902683    2.7722656286916449    0.0000000000000000
     0.0000000000000000    0.0000000000000000   37.4215738774012863
 Hf  O   Pt  O  
   1   2   1   2
Cartesian
  0.4938416046703512  0.6732185707314056 15.9724295917334569
  2.0944099116606196  1.5973071136286205 16.9448591834669173
  0.4938416046703512  2.5213956565258355 14.9999999999999982
  0.5705710912892916  0.6365125240196099 21.4786560999478162
  2.1711393982795597  1.5606010669168249 22.4215738774012863
  0.5705710912892916  2.4846896098140396 20.5357383224943462
