Ti Te Zr S 
 1.0000000000000000
     3.6452325554863245    0.0000000000000000    0.0000000000000000
    -1.8226162777431623    3.1568639957532252    0.0000000000000000
    -0.0000000000000000    0.0000000000000000  -42.1949568463153426
 Ti  Te  Zr  S  
   2   2   1   2
Cartesian
  2.1030732725773675  1.4344496140995258 -19.0942779024546567
  2.1030732725773675  1.4344496140995258 -16.7151615237054045
  0.2804569948342054  2.4867376126839336 -20.8094364375122645
  0.2804569948342054  2.4867376126839336 -14.9999999999999982
  0.1963715583722530  0.5547842497483941 -25.7490744035712140
  2.0189878361154148  1.6070722483328024 -24.3031919608271529
  0.1963715583722529  2.6593602469172106 -27.1949568463153426
