Hf Te Cl Cd
 1.0000000000000000
     3.9206996137730381    0.0012519794577290    0.0000000000000000
    -1.9592566247835408    3.4024163656465900    0.0000000000000000
     0.0000000000000033    0.0000000000000000   41.7221272773526124
 Hf  Te  Cl  Cd 
   1   2   2   2
Cartesian
 -0.4765581498180241  1.5647065225990755 16.8494380278571043
  1.4841560511028213  2.6996799641197584 18.6988761198817670
  1.4841560511028211  2.6996799641197584 15.0000000000000000
  1.0468078623291055 -0.3822014085502611 21.2109730325037411
  1.0591469386876518  4.1319719751810675 26.7221272773526124
  1.0594396205411578  1.8637843502076277 25.3030126930280872
  1.0465729262825867  1.8859845207873795 22.6299242164133290
