Ge Br Ge Br I  Zn
 1.0000000000000000
     4.2194203320963606   -0.0506467540195953    0.0000000000000001
    -2.0645468800511062    3.6805410551499413    0.0000000000000001
     0.0000000000000038    0.0000000000000022   43.0070530151504329
 Ge  Br  Ge  Br  I   Zn 
   1   1   1   1   2   2
Cartesian
  2.7583215248042667  2.9703989485663804 17.3501422193768633
  0.6284623885310857  1.7748662053217696 20.3794909095427315
  0.6329763890640333  1.7771576611773354 18.0293662204716654
 -1.4611409737033163  3.0183711291022046 15.0000000000000018
  1.6314551584544512 -1.3224019106230898 22.7037029817139384
  1.6501373211824708  1.1038055324712304 28.0070530151504329
  3.7441933050282832 -0.1425000376612675 26.5410967206094242
  3.7571790130848268 -0.1262260293624497 24.1695522178287732
