Pt Se Sn Se
 1.0000000000000000
     3.8065506083482274   -0.0000000000000000    0.0000000000000000
    -1.9032753041741137    3.2965695276206741    0.0000000000000000
     0.0000000000000000    0.0000000000000000   39.1060044226049115
 Pt  Se  Sn  Se 
   1   2   1   2
Cartesian
  0.7037733248246412  0.8529215958632190 16.3098087278973836
  2.6070486289987551  1.9517781050701104 17.6196174497051317
  0.7037733248246411  3.0506346142770018 15.0000000000000000
  0.5634582229722996  0.7203648475943747 22.5130734030307060
  2.4667335271464133  1.8192213568012661 24.1060044226049115
  0.5634582229722996  2.9180778660081574 20.9201423834564402
