S  Hf Tl S  Tl
 1.0000000000000000
     4.1044786406101181    0.0000000000000000    0.0000000000000000
    -2.0522393191203623    3.5551154018503510    0.0000000000000000
    -0.0000000000000000    0.0000000000000000   42.2397565736648275
 S   Hf  Tl  S   Tl 
   2   2   1   2   1
Cartesian
  1.2206510081031507  0.1697236305141757 15.0000000000000000
  1.2209717894840284  2.5392907734372434 18.3254866465823731
  1.2207766804817171  0.1696005051466781 17.6045811352982859
  1.2208461072697547  2.5394139039483123 15.7209963454440533
  0.7389874398369054  3.1655433883666024 26.0428991878332567
  2.7910792602603118  1.9800368803536785 21.9620091615078508
  0.7386579813645806  0.7951630118840060 27.2397565736648275
  0.7385104778226294  3.1660138862601435 23.1588644428193042
