Zr Br Si Se
 1.0000000000000000
     3.5352641753120730   -0.0000000000000001    0.0000000000000000
    -1.7674402208850633    3.0622154076042216    0.0000000000000000
     0.0000000000000012    0.0000000000000021   40.2597650591949758
 Zr  Br  Si  Se 
   1   2   1   2
Cartesian
 -0.7830880769868964  1.3729662711228470 16.8261924305408073
  0.9846079662594645  2.3937047403242544 18.6523848530272502
  0.9846079662594645  2.3937047403242540 14.9999999999999964
  0.6066313482686057  0.9611756410559343 23.8201400302393367
  2.3748558755377287  1.9810938020845432 22.3805119723794199
  0.6068131492081114  3.0018980811350460 25.2597650591949758
