S  Hf Pt Te
 1.0000000000000000
     4.0819017471578771    0.0000000000000000    0.0000000000000000
    -2.0409508723942413    3.5355632385821756    0.0000000000000000
    -0.0000000000000000    0.0000000000000000   40.0331887498482146
 S   Hf  Pt  Te 
   2   2   1   2
Cartesian
  1.2544790277879363  0.6810074863754578 15.0000000000000000
  1.2547980446988622  3.0375426575011479 18.3254866465823731
  1.2546040088991943  0.6808850381638372 17.6045811352982859
  1.2546730538059987  3.0376651108280521 15.7209963454440533
  0.8284250681283782  0.0897034777865158 23.6459745202947076
  2.8693759421022156  1.2682245573139075 25.0331887498482146
  0.8284250689181765  2.4467456368412996 22.2587602916976799
