S  Hf Cd Br
 1.0000000000000000
     4.1050294675565304    0.0000000000000000    0.0000000000000000
    -2.0525147325935684    3.5555924319790329    0.0000000000000000
    -0.0000000000000000    0.0000000000000000   40.3955304857794957
 S   Hf  Cd  Br 
   2   2   1   2
Cartesian
  1.1778181583477623  0.8610114576214521 15.0000000000000000
  1.1781389827778570  3.2308965522257851 18.3254866465823731
  1.1779438475917430  0.8608883157328284 17.6045811352982859
  1.1780132836968495  3.2310196992586699 15.7209963454440533
  0.8627610087420385  0.2228284354955596 23.8289226350635452
  2.9152757429152030  1.4080259128219033 25.3955304857794957
  0.8627610095318365  2.5932233901482467 22.2623147843476055
