Mo S  Zr O 
 1.0000000000000000
     3.2264414355878888    0.0000000000000000    0.0000000000000000
    -1.6132207177939444    2.7941802470418446    0.0000000000000000
     0.0000000000000000    0.0000000000000000   38.9672000852734968
 Mo  S   Zr  O  
   1   2   1   2
Cartesian
 -0.4997007032788542  1.1247344579942540 16.5635563231757601
  1.1135200145150901  2.0561278736748689 18.1271126463515202
  1.1135200145150901  2.0561278736748689 15.0000000000000000
  0.5820270594949140  0.8068984805907264 23.0058681128419202
  2.1952477772888583  1.7382918962713414 23.9672000852734968
  0.5820270594949140  2.6696853119519561 22.0445361404103402
