Sn Se Zn Br
 1.0000000000000000
     3.8314740496367148    0.0000000000000000    0.0000000000000000
    -1.9157370248183576    3.3181538609262340    0.0000000000000000
     0.0000000000000000    0.0000000000000000   39.3884848725500021
 Sn  Se  Zn  Br 
   1   2   1   2
Cartesian
  0.6215976578149648  0.7071254844147111 16.5929310195742659
  2.5373346826333223  1.8131767713901223 18.1858620391484678
  0.6215976578149647  2.9192280583655337 15.0000000000000000
  0.5614899548566097  0.8735726972458530 22.9058862672183849
  2.4772269796749660  1.9796239842212642 24.3884848725500021
  0.5614899548566099  3.0856752711966755 21.4232876618867820
