In Se Ca Cl
 1.0000000000000000
     4.1059362192296618   -0.0000000000000000    0.0000000000000000
    -2.0529681096148309    3.5558450721715182    0.0000000000000000
     0.0000000000000000    0.0000000000000000  -41.5191173948832386
 In  Se  Ca  Cl 
   2   2   1   2
Cartesian
  2.3515998914321337  1.5527650064343410 -19.0907759371286403
  2.3515998914321337  1.5527650064343410 -16.2765302237423768
  0.2986317818173029  2.7380466971581807 -20.3673061832687701
  0.2986317818173029  2.7380466971581807 -15.0000000000000036
  0.2273234886200193  0.6187040544710447 -25.1169465784541757
  2.2802915982348493  1.8039857451948835 -23.7147757620250985
  0.2273234886200194  2.9892674359187223 -26.5191173948832386
