Pb Br Ge F 
 1.0000000000000000
     4.2791038961666263   -0.0000000000000000    0.0000000000000000
    -2.1395519480833132    3.7058126795139694    0.0000000000000000
     0.0000000000000013    0.0000000000000022   41.2480634257185628
 Pb  Br  Ge  F  
   1   2   2   2
Cartesian
 -0.3242670698770951  1.6299147706578965 16.8414801415537809
  1.8152848782062183  2.8651856638292199 18.6829602831084429
  1.8152848782062183  2.8651856638292195 15.0000000000000000
  1.2550555807578216  0.8505685127754703 23.8740768036532849
  1.2550555844953588  3.3211102991181156 24.4671566889308068
  1.2550555807578216  0.8505685127754699 22.0931700980745731
  1.2550555844953588  3.3211102991181161 26.2480634257185628
