Ru Br Zr Se
 1.0000000000000000
     3.7876191756596285    0.0000000000000000    0.0000000000000000
    -1.8938095878298145    3.2801744259823122    0.0000000000000000
    -0.0000000000000000    0.0000000000000000   39.1916411373025042
 Ru  Br  Zr  Se 
   1   2   1   2
Cartesian
  0.5143381956514548  0.7556419154665581 16.3168491539496046
  2.4081477834812688  1.8490333907939958 17.6336983078992056
  0.5143381956514548  2.9424248661214332 15.0000000000000000
  0.6307551844092814  0.8019251135761840 22.6110358321704794
  2.5245647722390956  1.8953165889036212 24.1916411373025042
  0.6307551844092811  2.9887080642310582 21.0304305270383267
