Br Pt Ru Br
 1.0000000000000000
     3.7682810989691333    0.0000194514724014    0.0000000000000000
    -1.8841236968601778    3.2634525464950350    0.0000000000000000
    -0.0000000000000002   -0.0000000000000000   40.2416086208514940
 Br  Pt  Ru  Br 
   2   2   1   2
Cartesian
 -0.7331567189116830  1.7979291432142386 15.0000000000000000
  3.0349969185144001  1.7980909184440836 19.3348512724562163
  1.1507764907787768  0.7101305697711772 17.8923023562523369
  1.1508196126758450  2.8857341442865159 16.4415417443947689
  0.8086403738184164  0.2006098026672363 23.9247594669018966
  2.6927865408444456  1.2884402858138495 25.2416086208514940
  0.8086516089013424  2.3762513174880606 22.6079103129522920
