Ge Br Ge Br S  Cd
 1.0000000000000000
     4.2813598537163191   -0.0506467540195987    0.0000000000000001
    -2.0969026080911659    3.7348485330675247    0.0000000000000001
     0.0000000000000022   -0.0000000000000000   38.3489663926993885
 Ge  Br  Ge  Br  S   Cd 
   1   1   1   1   2   2
Cartesian
  1.4230829606212907  2.6560636988333246 17.3501422193768633
 -0.7373573258060612  1.4423911556192972 20.3794909095427244
 -0.7327783760861336  1.4447174566835583 18.0293662204716583
 -2.8583181791888412  2.7039961402079826 14.9999999999999982
  3.7731006131893303 -0.2518522777059395 20.1115579888520273
  3.8025881214928794  2.2199369658638775 23.3489663926993813
  3.7727320948922625 -0.2517779660317052 22.9249078344146966
  3.8029568649088068  2.2198626738972340 20.5355088815115963
