Cl Pt Ga S  Ga
 1.0000000000000000
     3.6436290666663247    0.0000000000000002    0.0000000000000000
    -1.8218145348060295    3.1560518315183872    0.0000000000000000
    -0.0000000000000001    0.0000000000000000   42.7726786397182934
 Cl  Pt  Ga  S   Ga 
   2   2   1   2   1
Cartesian
 -0.7072790353039159  1.1807929845280110 15.0000000000000000
  2.9352314082252642  1.1819583970261593 19.1833300419795165
  1.1142406730498617  0.1298135243059451 17.8345471777233797
  1.1144582976962609  2.2334145195686874 16.3507841280650084
  0.6510518411509456  2.7606800050999385 26.6840778534376604
  2.4729259983427325  1.7086357500810345 23.1217859535263770
  0.6508601023163197  0.6567630798365505 27.7726786397182863
  0.6509197266009312  2.7607706562943828 24.2103855656232376
