Ti Se W  Te
 1.0000000000000000
     3.5226810568098563    0.0000000000000000    0.0000000000000000
    -1.7613405284049282    3.0507312846275489    0.0000000000000000
     0.0000000000000000    0.0000000000000000   40.8514732599001036
 Ti  Se  W   Te 
   1   2   1   2
Cartesian
  0.2150233300719586  1.0387707721250425 16.6199398271809464
  1.9763638584768870  2.0556812003342255 18.2398796543619532
  1.9763638584768870  2.0556812003342255 15.0000000000000000
  0.2144157016733490  1.3551815287879336 24.0395110466666395
  1.9757562300782774  2.3720919569971164 25.8514732599001036
  1.9757562300782774  2.3720919569971164 22.2275488334331719
