Sn S  Pd Se
 1.0000000000000000
     3.7434495200231472   -0.0000000000000000    0.0000000000000000
    -1.8717247600115736    3.2419223821247085    0.0000000000000000
    -0.0000000000000000    0.0000000000000000   37.6196161033544598
 Sn  S   Pd  Se 
   1   1   1   2
Cartesian
  2.1434862793915119  1.3591117330805784 16.4598471617338156
  0.2717615193799383  2.4397525271221476 15.0000000000000036
  0.6608544318968939  0.3455809387043485 21.3065575790230497
  2.5325791919084675  1.4262217327459181 22.6196161033544598
  0.6608544318968939  2.5068625267874878 19.9934992953939705
