Hf I  Zn Br
 1.0000000000000000
     3.7856310967441873    0.0000000000000000    0.0000000000000000
    -1.8928155483720939    3.2784526991368121    0.0000000000000000
     0.0000000000000000    0.0000000000000000   40.7055246871247078
 Hf  I   Zn  Br 
   1   2   1   2
Cartesian
 -0.5470797475180535  1.3607544182828415 16.9476853944779791
  1.3457358008540397  2.4535719846617781 18.8953707810581477
  1.3457358008540397  2.4535719846617781 15.0000000000000000
  0.4668002790711106  0.9298092344781320 24.2229260817930871
  2.3596158274432031  2.0226268008570694 25.7055246871247078
  0.4668002790711108  3.1154443672360066 22.7403274764614842
