Zr I  Sn S 
 1.0000000000000000
     3.7625087623610831    0.0000000000000000    0.0000000000000000
    -1.8812543811805416    3.2584281701662459    0.0000000000000000
     0.0000000000000000    0.0000000000000000   40.6813863857867233
 Zr  I   Sn  S  
   1   2   1   2
Cartesian
 -0.5473915160939983  1.3541890017650773 16.9391452359630961
  1.3338628650865434  2.4403317251538259 18.8782904725522265
  1.3338628650865434  2.4403317251538259 15.0000000000000000
  0.4650880043271973  0.9266909415039994 24.2038149830022959
  2.3463423855077394  2.0128336648927481 25.6813863857867233
  0.4650880043271973  3.0989763882814967 22.7262435802178757
