Cr Se Sn O 
 1.0000000000000000
     3.2148371194789584    0.0000000000000000    0.0000000000000000
    -1.6074185597394792    2.7841306144979665    0.0000000000000000
     0.0000000000000000    0.0000000000000000   39.0958860330062947
 Cr  Se  Sn  O  
   1   2   1   2
Cartesian
 -0.4888937585142845  1.1914572348688925 16.5737644427049240
  1.1185248012251945  2.1195007730348809 18.1475288854098444
  1.1185248012251945  2.1195007730348809 15.0000000000000000
  0.5833705925028863  0.7821437719143077 23.0869237083338810
  2.1907891522423655  1.7101873100802965 24.0958860330062947
  0.5833705925028863  2.6382308482462853 22.0779613836614672
