Pb Te Ge Br Ge Br
 1.0000000000000000
     4.2855597473022122   -0.0506467540195987    0.0000000000000001
    -2.0990025561166532    3.7370199835089126    0.0000000000000001
    -0.0000000000000021    0.0000000000000000  -37.4091551139356326
 Pb  Te  Ge  Br  Ge  Br 
   1   1   1   1   1   1
Cartesian
  5.8526674441404971  1.3149482138905795 -14.9999999999999982
  3.7244800096675430  2.5775037930667497 -16.6845068820464775
  1.6168491341447622  2.1620445744291130 -20.0590128945587693
 -0.5456961387467364  0.9476467226910898 -17.0296642043929047
 -0.5411127247610111  0.9499744170191651 -19.3797888934639708
 -2.6687519083266187  2.2099754268583367 -22.4091551139356326
