Hf Cl W  Se
 1.0000000000000000
     3.3341931215441734    0.0000000000000000    0.0000000000000000
    -1.6670965607720867    2.8874959443805905    0.0000000000000000
     0.0000000000000000    0.0000000000000000   40.8137785037637215
 Hf  Cl  W   Se 
   1   2   1   2
Cartesian
  0.2066222006991671  1.3541813569124415 16.7299570918342582
  1.8737187614712538  2.3166800050393053 18.4599141836685092
  1.8737187614712538  2.3166800050393053 15.0000000000000018
  0.3849622235804602  1.3299429006035428 24.1345021015673069
  2.0520587843525466  2.2924415487304062 25.8137785037637144
  2.0520587843525466  2.2924415487304062 22.4552256993708959
