Ti Te Sn S 
 1.0000000000000000
     3.7163679420749656    0.0000000000000000    0.0000000000000000
    -1.8581839710374828    3.2184690476470150    0.0000000000000000
     0.0000000000000000    0.0000000000000000  -40.3389801694764287
 Ti  Te  Sn  S  
   1   2   1   2
Cartesian
 -0.3883575268637069  1.1547360289457875 -16.7885301883652147
  1.4698264441737758  2.2275590448281259 -15.0000000000000053
  1.4698264441737758  2.2275590448281259 -18.5770603767261093
  0.8377827586236073  1.0559007626491341 -23.8614087666920049
  2.6959667296610901  2.1287237785314721 -22.3838373639075812
  0.8377827586236073  3.2015467944138107 -25.3389801694764287
