In O  Si Se
 1.0000000000000000
     3.4742599002747836   -0.0000000000000001    0.0000000000000000
    -1.7369380833664188    3.0093841556824765    0.0000000000000000
     0.0000000000000013    0.0000000000000022   41.0149561972592736
 In  O   Si  Se 
   2   2   1   2
Cartesian
  1.8779328091260736  1.3697139821074473 15.7906696250192056
  1.8779328091260739  1.3697139821074478 18.6409348226404816
  0.1408668145790062  2.3728420340016059 15.0000000000000000
  0.1408668145790064  2.3728420340016059 19.4316044446728213
 -0.2023191625262342  0.7874249176824357 24.5753311683036237
  1.5353941068534480  1.7897468138725032 23.1357031104437070
 -0.2021382923204515  2.7929395402231574 26.0149561972592664
