Zr Te Pd Se
 1.0000000000000000
     3.7417697370852956   -0.0000000000000000    0.0000000000000000
    -1.8708848685426478    3.2404676474276859    0.0000000000000000
     0.0000000000000000    0.0000000000000000   42.4323847081820702
 Zr  Te  Pd  Se 
   2   2   1   2
Cartesian
  2.1656450670738661  1.3757297940177302 22.9353000910209985
  2.1656450670738661  1.3757297940177302 25.6141911059638261
  0.2947601985312186  2.4558856764936250 21.1171066542711756
  0.2947601985312186  2.4558856764936250 27.4323847081820702
  0.2015636260275134  0.5711562185471833 16.3130582836290792
  2.0724484945701609  1.6513121010230789 17.6261168079604893
  0.2015636260275134  2.7314679834989741 15.0000000000000000
