Cl Pt Zr S 
 1.0000000000000000
     3.6568097854659709    0.0000000000000002    0.0000000000000000
    -1.8284048916958435    3.1674579212114029    0.0000000000000000
    -0.0000000000000002    0.0000000000000000   40.4136842313460107
 Cl  Pt  Zr  S  
   2   2   1   2
Cartesian
 -0.7592678669735243  1.9238224944821734 15.0000000000000000
  2.8964192487706031  1.9249921188248007 19.1833300419795165
  1.0688411334219428  0.8690447550718206 17.8345471777233797
  1.0690595469955151  2.9802482432311201 16.3507841280650084
  0.7191233638968734  0.1481568278679939 23.9678017886019461
  2.5475282569755722  1.2039761349384615 25.4136842313460107
  0.7191233645883012  2.2597954420089286 22.5219193458578211
