Al Te Al Br Hg
 1.0000000000000000
     4.1557873109908474    0.0010674728082233    0.0000000000000000
    -2.0769615803676720    3.6054293074117192    0.0000000000000000
     0.0000000000000036    0.0000000000000000   44.3357707469106543
 Al  Te  Al  Br  Hg 
   1   2   1   2   2
Cartesian
  0.9428084715964992  3.5298536487094241 18.8314022027447159
  3.0204359478570262  2.3284037390607968 15.0000000000000036
  0.9421617199138009  1.1258450797694035 20.1000459107870029
  0.9428276243780004  3.5298244761368198 16.2686119692352200
  1.2805551108802309 -0.8423543380896499 23.5661184737496683
  1.2911156478061891  3.9433427347771826 29.3357707469106543
  1.2955887252004079  1.5368347171942076 27.7840100910706127
  1.2766345929674823  1.5638367042322643 25.1173877678568829
