Pb O  Pd S 
 1.0000000000000000
     3.5731542902734654   -0.0000000000000000    0.0000000000000000
    -1.7865771451367327    3.0944423870181765    0.0000000000000000
    -0.0000000000000000    0.0000000000000000   37.1063590423962211
 Pb  O   Pd  S  
   1   1   1   2
Cartesian
  1.9827443149469586  1.2081332853300510 15.9428404019710115
  0.1961671698102261  2.2396140810027765 15.0000000000000000
  0.7341222297174261  0.1205429140480978 20.8612872089916870
  2.5206993748541588  1.1520237097208235 22.1063590423962175
  0.7341222297174261  2.1835045053935493 19.6162153755871564
