Mo Se Ga N 
 1.0000000000000000
     3.2940973170198351    0.0000000000000000    0.0000000000000000
    -1.6470486585099176    2.8527719590773382    0.0000000000000000
     0.0000000000000000    0.0000000000000000  -37.2534715176925530
 Mo  Se  Ga  N  
   1   2   1   1
Cartesian
  0.1291442388922146  1.0446121190779822 -16.6690294767632068
  1.7761928974021322  1.9955361054370950 -15.0000000000000036
  1.7761928974021322  1.9955361054370950 -18.3380589535264136
  0.3622017319170950  2.1607783423285070 -22.2534715176925459
  2.0092503904270127  1.2098543559693944 -22.2534715176925459
