Zr Br Ru Cl
 1.0000000000000000
     3.5777292172008139   -0.0000000000000000    0.0000000000000000
    -1.7888646086004072    3.0984043899577181    0.0000000000000000
     0.0000000000000000    0.0000000000000000   39.8368464833024092
 Zr  Br  Ru  Cl 
   1   2   1   2
Cartesian
 -0.3207462941990147  1.1844031335002423 16.8261924305408073
  1.4681183144013921  2.2172045968194816 18.6523848530272502
  1.4681183144013921  2.2172045968194816 15.0000000000000000
  0.2672934213464356  0.9574484970222527 23.6094703336868150
  2.0561580299468436  1.9902499603414920 24.8368464833024092
  0.2672934213464369  3.0230514236607311 22.3820941945897793
