Cd Cl Zr Se
 1.0000000000000000
     3.8472186564878936   -0.0000000000000000    0.0000000000000000
    -1.9236093282439470    3.3317890904319531    0.0000000000000000
    -0.0000000000000000    0.0000000000000000   39.4216661071748220
 Cd  Cl  Zr  Se 
   1   2   1   2
Cartesian
  0.7499607507565880  0.9336014603027766 16.4378714166122748
  2.6735700790005343  2.0441978237800944 17.8757428332245674
  0.7499607507565881  3.1547941872574130 15.0000000000000000
  0.7904184763130455  0.8207013941572655 22.8410608020428043
  2.7140278045569919  1.9312977576345829 24.4216661071748291
  0.7904184763130453  3.0418941211119002 21.2604554969106516
