In Se In Se Zn
 1.0000000000000000
     4.0800106233218827    0.0000000000000000    0.0000000000000000
    -2.0400053104969995    3.5335561227050758    0.0000000000000000
     0.0000000000000000    0.0000000000000000   42.6767617882741703
 In  Se  In  Se  Zn 
   1   2   1   2   2
Cartesian
  0.6601860281012781  3.3274898995379298 19.0853122328591063
  2.7001996475291596  2.1492786037760352 15.0000000000000000
  0.6600331547588216  0.9715678794987396 20.3557279819780419
  0.6600414607924175  3.3277028290023130 16.2704079646881112
  1.2966208191792556  0.4059895106815212 24.2634581975831871
  1.2967262322752393  2.7615600599293040 27.6767617882741703
  1.2965201442069436  0.4060444601065355 26.9191553791931071
  1.2968268778130798  2.7615051085186075 25.0214397996714268
