Al S  Zn Cl
 1.0000000000000000
     3.5914401026665335    0.0000000000000000    0.0000000000000000
    -1.7957200513332672    3.1102783650794104    0.0000000000000000
     0.0000000000000000    0.0000000000000000   41.4370762758473603
 Al  S   Zn  Cl 
   2   2   1   2
Cartesian
  1.9065526935720998  1.4701424871730606 16.0691806254429004
  1.9065526935720998  1.4701424871730606 18.6673481735629565
  0.1108326422388333  2.5069019421995304 15.0000000000000000
  0.1108326422388333  2.5069019421995304 19.7365287990058356
 -0.2788915643096440  0.7753072124400756 25.0696092872652443
  1.5168284870236219  1.8120666674665453 26.4370762758473603
 -0.2788915643096441  2.8488261224930151 23.7021422986831070
