Al Se Al Cl Cd
 1.0000000000000000
     3.8621455393429986    0.0012519794577290    0.0000000000000000
    -1.9299795875685211    3.3517035575402838    0.0000000000000000
     0.0000000000000030    0.0000000000000000   37.9606937264288007
 Al  Se  Al  Cl  Cd 
   1   2   1   2   2
Cartesian
  0.6719711481162403  2.8351295802992582 21.8003109443540168
  2.6027189155950414  1.7183677739016776 18.0616657994148326
  0.6711446070519556  0.6003768429484557 22.9606937264288007
  0.6719127353120132  2.8351665665697534 19.2220482995480637
  1.2118690792738476 -0.8899449645327420 15.0000000000000018
  1.2240455333974740  3.5569573692595533 20.5111542448488748
  1.2243229624399750  1.3225707283178338 19.0920396605243496
  1.2116485336196703  1.3444400063166722 16.4189511839095879
