Ni Se Pt S 
 1.0000000000000000
     3.5576899120881800    0.0000000000000000    0.0000000000000000
    -1.7788449560440900    3.0810498426559896    0.0000000000000000
     0.0000000000000000    0.0000000000000000   38.4947260966443849
 Ni  Se  Pt  S  
   1   2   1   2
Cartesian
  0.4593828870966406  0.6916161481248392 16.2453409434781548
  2.2382278431407303  1.7186327623435020 17.4906818874949650
  0.4593828870966404  2.7456493765621652 15.0000000000000000
  0.5590928838111745  0.4693198239203427 22.2626987271439170
  2.3379378398552642  1.4963364381390059 23.4947260966443849
  0.5590928838111744  2.5233530523576690 21.0306713576434490
