Ge S  Se Ir
 1.0000000000000000
     3.4482314821390432   -0.0000000000000000    0.0000000000000000
    -1.7241157400961349    2.9911700469953484    0.0000000000000000
     0.0000000000000000    0.0000000000000000  -39.8125586497183050
 Ge  S   Se  Ir 
   1   1   2   2
Cartesian
  2.1995270536788896  1.7610629010467016 -23.4515259807153527
  0.4754113129338306  2.7581195833784840 -24.8125586497182979
  1.1601118135664743  0.5790999628245143 -19.7747437366469114
  1.1598542769927502  2.5723850752423254 -15.0000000000000000
  1.1597845566697211  0.5814681196087041 -16.3844902057766504
  1.1601816374158018  2.5700149163877564 -18.3902226541934937
