Ge Te Zn I 
 1.0000000000000000
     4.0216743435259872   -0.0000000000000000    0.0000000000000000
    -2.0108371717629940    3.4828721472416060    0.0000000000000000
     0.0000000000000000    0.0000000000000000   38.3314603076374851
 Ge  Te  Zn  I  
   1   1   1   2
Cartesian
  2.2162101368270388  1.1386746751131762 16.5598212339094246
  0.2053729650640454  2.2996320575270444 15.0000000000000000
  0.9455666999181509  0.2388694128457912 21.7040545391250994
  2.9564038716811440  1.3998267952596599 23.3314603076374851
  0.9455666999181502  2.5607841776735287 20.0766487706127137
