Sr Br Sr Cl
 1.0000000000000000
     4.3065994925307365    0.0000000000000000    0.0000000000000000
    -2.1532997462653682    3.7296245644567891    0.0000000000000000
     0.0000000000000000    0.0000000000000000   35.2616261298092937
 Sr  Br  Sr  Cl 
   1   2   1   2
Cartesian
  0.2950910425294880  1.5112206702518205 16.8028165994893754
  2.4483907887948564  2.7544288584040837 18.6056331989787509
  2.4483907887948564  2.7544288584040837 15.0000000000000018
  0.3586889240539963  1.7034851238784163 18.6056503917898084
  2.5119886703193646  2.9466933120306797 20.2616261298092937
  2.5119886703193646  2.9466933120306797 16.9496746537703267
