Pb Cl Sr Cl
 1.0000000000000000
     4.2022327988405381    0.0000000000000000    0.0000000000000000
    -2.1011163994202691    3.6392403564120883    0.0000000000000000
     0.0000000000000000    0.0000000000000000   40.7001507836028935
 Pb  Cl  Sr  Cl 
   1   2   1   2
Cartesian
  0.1489141889918755  1.2635829177303037 16.7004028302812522
  2.2500305884121445  2.4766630365343332 18.4008056605625043
  2.2500305884121445  2.4766630365343332 15.0000000000000000
  0.2132117514964969  1.5843986175824778 24.0441750455834082
  2.3143281509167659  2.7974787363865072 25.7001507836028935
  2.3143281509167659  2.7974787363865072 22.3881993075639265
