Ca Cl Cd Br
 1.0000000000000000
     4.0998518572614113   -0.0000000000000000    0.0000000000000000
    -2.0499259286307066    3.5505758601411941    0.0000000000000000
     0.0000000000000000    0.0000000000000000   39.2032590469108300
 Ca  Cl  Cd  Br 
   1   2   1   2
Cartesian
  0.5320814170547450  0.6398392347911741 16.4021708164290665
  2.5820073456854500  1.8233645215049050 17.8043416328581401
  0.5320814170547445  3.0068898082186362 15.0000000000000000
  0.7786481390412554  0.8982238869109602 22.6366511961948795
  2.8285740676719615  2.0817491736246909 24.2032590469108300
  0.7786481390412550  3.2652744603384223 21.0700433454789398
