Ru Cl Sn S 
 1.0000000000000000
     3.6445625562388324   -0.0000000000000000    0.0000000000000000
    -1.8222812781194162    3.1562837593843804    0.0000000000000000
     0.0000000000000000    0.0000000000000000   38.6996918725125809
 Ru  Cl  Sn  S  
   1   2   1   2
Cartesian
  0.6769418462085859  0.7279839728965807 16.2273761390970321
  2.4992231243280036  1.7800785593580406 17.4547522887126298
  0.6769418462085874  2.8321731458195005 15.0000000000000000
  0.5195776084998955  0.7995815792079641 22.2221204697281571
  2.3418588866193124  1.8516761656694243 23.6996918725125809
  0.5195776084998955  2.9037707521308844 20.7445490669437334
