Mo Se Sn O 
 1.0000000000000000
     3.3311836471335474   -0.0000000000000000    0.0000000000000000
    -1.6655918235667737    2.8848896630889489    0.0000000000000000
     0.0000000000000000    0.0000000000000000  -38.3025558824116956
 Mo  Se  Sn  O  
   1   2   1   1
Cartesian
 -0.1122089154581523  1.2024129607202099 -16.6690294767632068
  1.5533829081086215  2.1640428484165257 -15.0000000000000036
  1.5533829081086215  2.1640428484165257 -18.3380589535264136
  1.9411906112639277  1.6882862968272980 -22.2911622637935558
  0.2755987876971536  2.6499161845236143 -23.3025558824116956
