Hf S  Ru Br
 1.0000000000000000
     3.7162910500121544   -0.0000000000000000    0.0000000000000000
    -1.8581455250060774    3.2184024571672714    0.0000000000000000
    -0.0000000000000000    0.0000000000000000   38.8716517990881698
 Hf  S   Ru  Br 
   1   2   1   2
Cartesian
  0.6605664065953681  0.6005307302309332 16.4481043019908562
  2.5187119316014455  1.6733315492866903 17.8962086039820498
  0.6605664065953680  2.7461323683424474 15.0000000000000000
  0.8612657382236408  0.9729223634202044 22.5548026451385688
  2.7194112632297172  2.0457231824759621 23.8716517990881698
  0.8612657382236407  3.1185240015317195 21.2379534911889643
