Mo Te Zr Cl
 1.0000000000000000
     3.4787535050463436    0.0000000000000000    0.0000000000000000
    -1.7393767525231718    3.0126889088742907    0.0000000000000000
     0.0000000000000000    0.0000000000000000   41.0242609738558173
 Mo  Te  Zr  Cl 
   1   2   1   2
Cartesian
  0.2223387060266182  1.3163491329425301 16.8051000000000030
  1.9617154585497898  2.3205787692339608 18.6101999999999990
  1.9617154585497898  2.3205787692339608 15.0000000000000036
  0.3245217117942411  1.3975622027430021 24.3163617539370236
  2.0638984643174125  2.4017918390344324 26.0242609738558173
  2.0638984643174125  2.4017918390344324 22.6084625340182157
