Ti I  Ge Se
 1.0000000000000000
     3.7175698486849118    0.0000000000000000    0.0000000000000000
    -1.8587849243424559    3.2195099293042051    0.0000000000000000
     0.0000000000000000    0.0000000000000000  -39.0204032980129867
 Ti  I   Ge  Se 
   1   2   1   1
Cartesian
 -0.0973820941843895  1.2985520512242354 -16.8143657848829200
  1.7614028301580662  2.3717220276589708 -14.9999999999999982
  1.7614028301580662  2.3717220276589708 -18.6287315661405373
  2.1253922356967578  1.8114751172415702 -22.5730435642993754
  0.2666073113543023  2.8846450936763057 -24.0204032980129867
