Hf I  S  Zn
 1.0000000000000000
     3.8478861652074388    0.0000000000000000    0.0000000000000000
    -1.9239430814833884    3.3326229411628385    0.0000000000000000
     0.0000000000000000    0.0000000000000000  -40.8957439895489046
 Hf  I   S   Zn 
   1   2   2   2
Cartesian
 -0.1901905911361118  1.2835506602063111 -16.9476853865801687
  1.7337524918410512  2.3944249739272569 -15.0000000000000018
  1.7337524918410512  2.3944249739272569 -18.8953707810581477
  1.4674503722386687  1.1124550882106181 -25.8957439895489010
  1.4675197810287370  3.3340099434707811 -22.7750013476458264
  1.4673257547062497  1.1125026390969166 -23.3142839005395537
  1.4676444133176103  3.3339625193187730 -25.3563155850696056
