Pd S  Zn Cl
 1.0000000000000000
     3.5761348450854435    0.0000000000000000    0.0000000000000000
    -1.7880674225427220    3.0970236232027220    0.0000000000000000
     0.0000000000000000    0.0000000000000000   38.6518388017862620
 Pd  S   Zn  Cl 
   1   2   1   2
Cartesian
  0.5154566904192839  0.6373684473233615 16.2450718334045305
  2.3035241129620054  1.6697096550576023 17.4901436668090611
  0.5154566904192838  2.7020508627918431 15.0000000000000000
  0.6935398104208348  0.8964491147414209 22.2843718132041460
  2.4816072329635555  1.9287903224756611 23.6518388017862620
  0.6935398104208348  2.9611315302099008 20.9169048246220086
