Sn S  Zr S 
 1.0000000000000000
     3.7171566413176693   -0.0000000000000000    0.0000000000000000
    -1.8585783206588347    3.2191520812271417    0.0000000000000000
    -0.0000000000000000    0.0000000000000000   37.9191858564190767
 Sn  S   Zr  S  
   1   1   1   2
Cartesian
  2.1003498479942762  1.5913743805230418 16.4598471617338120
  0.2417715273354415  2.6644250742654219 14.9999999999999982
  0.4969174578250139  0.2806198925438699 21.4733034136750121
  2.3554957784838479  1.3536705862862501 22.9191858564190767
  0.4969174578250137  2.4267212800286302 20.0274209709308870
