Cl Pt Pd S 
 1.0000000000000000
     3.5923712320126886    0.0000000000000002    0.0000000000000000
    -1.7961856149692024    3.1116524969377393    0.0000000000000000
    -0.0000000000000002    0.0000000000000000   39.1772506932787152
 Cl  Pt  Pd  S  
   2   2   1   2
Cartesian
 -0.4525550983704348  1.9036229894523649 19.9939206512991987
  3.1387132470694254  1.9047720069284437 24.1772506932787152
  1.3433398393655893  0.8674287074158353 22.8284678290225784
  1.3435544041717891  2.9414362456003018 21.3447047793642106
  0.7944908224692260  0.1828573684363095 16.2450718334045305
  2.5906764388212840  1.2200748674155557 17.4901436668090611
  0.7944908231606540  2.2572923663948017 15.0000000000000000
