Hf Se Ru Br
 1.0000000000000000
     3.7765001901258985   -0.0000000000000000    0.0000000000000000
    -1.8882500950629497    3.2705451020457907    0.0000000000000000
     0.0000000000000000    0.0000000000000000   39.2484812845920175
 Hf  Se  Ru  Br 
   1   2   1   2
Cartesian
  0.5123936834023317  0.7307038080165142 16.5758890207771756
  2.4006437784652808  1.8208855086984443 18.1517780415566783
  0.5123936834023313  2.9110672093803744 15.0000000000000000
  0.7087849474262879  0.7127497514870529 22.9316321306424165
  2.5970350424892366  1.8029314521689834 24.2484812845920175
  0.7087849474262877  2.8931131528509142 21.6147829766928119
