Pb S  Se Zn
 1.0000000000000000
     4.0122137202340049   -0.0000000000000000    0.0000000000000000
    -2.0061068589530602    3.4748422823330616    0.0000000000000000
     0.0000000000000000    0.0000000000000000   38.4700797516489033
 Pb  S   Se  Zn 
   1   1   2   2
Cartesian
  2.4651564610954493  1.9025454828823980 16.4391638847389423
  0.4590496013664276  3.0608262436600855 15.0000000000000000
  1.3398955879918266  0.6185223611340499 20.0567761609579200
  1.3399992494676538  2.9349525689210401 23.4700797516489033
  1.3397965859198995  0.6185763975151909 22.7124733425678400
  1.3400982225942171  2.9348985305872115 20.8147577630461598
