Hg Te Sr I 
 1.0000000000000000
     4.7852360578152222    0.0000000000000000    0.0000000000000000
    -2.3926180289076111    4.1441359891732823    0.0000000000000000
     0.0000000000000000    0.0000000000000000   37.5738217661275371
 Hg  Te  Sr  I  
   1   1   1   2
Cartesian
  3.1278393734639147  1.6210846805961843 15.5127096401301827
  0.7352213445563042  3.0024633436539450 15.0000000000000000
  0.6410721285458679  0.5998270979636847 20.7781925542385935
  3.0336901574534787  1.9812057610214455 22.5738217661275300
  0.6410721285458680  3.3625844240792060 18.9825633423496889
