Hf Se Cl Pd
 1.0000000000000000
     3.6725838048140700   -0.0000057074165551    0.0000000000000000
    -1.8362968459117357    3.1805248261532699    0.0000000000000000
    -0.0000000000000001    0.0000000000000000   40.6468056219639493
 Hf  Se  Cl  Pd 
   1   2   2   2
Cartesian
 -0.4115666679313200  1.4437785393517892 16.6825459715619715
  1.4247235866408139  2.5039496764585087 18.3650919482088710
  1.4247235866408139  2.5039496764585087 15.0000000000000000
 -0.8364788613571931  1.7935526627717131 21.5865328934110323
  2.8361570096713069  1.7934584036464396 25.6468056219639422
  0.9995954547187389  0.7331609300249873 24.3686019271538825
  0.9995881099528681  2.8535342237617534 22.8627485844868659
