Ti Te Ge Se
 1.0000000000000000
     3.7014978899854327    0.0000000000000000    0.0000000000000000
    -1.8507489449927164    3.2055912047818822    0.0000000000000000
    -0.0000000000000000    0.0000000000000000   38.8254379457581109
 Ti  Te  Ge  Se 
   1   2   1   1
Cartesian
 -0.3095587506462213  1.5564569695865864 16.7885301883608946
  1.5411901943464950  2.6249873711805471 18.5770603767261022
  1.5411901943464950  2.6249873711805471 15.0000000000000018
  2.1716617571940229  1.2968493366802640 23.8254379457581074
  0.3209128122013066  2.3653797382742248 22.3780782120444961
