I  Cd Ge I 
 1.0000000000000000
     4.3506653605528864    0.0008383076656587    0.0000000000000000
    -2.1746007005594952    3.7750417979575799    0.0000000000000000
     0.0000000000000033    0.0000000000000000   42.9433881113471330
 I   Cd  Ge  I  
   2   2   1   2
Cartesian
  1.2162668181381231 -0.3889157665345412 15.0000000000000000
  1.2277777690772853  4.6132189733891273 20.9102076548876994
  1.2329381929956251  2.0989134838922836 19.2986420562647361
  1.2141725811132804  2.1232106458906603 16.6116177631989359
  0.7222540902714094  0.3094274770015203 26.1986122173658913
  2.8978307637868359  1.5683336147644857 27.9433881113471330
  0.7227420767493749  2.8264014448617925 24.4538363233846390
