Ge Cl Hg I 
 1.0000000000000000
     4.3097742623225583   -0.0000000000000002    0.0000000000000000
    -2.1548871311612796    3.7323739957487527    0.0000000000000000
     0.0000000000000010    0.0000000000000017   42.4753353770761422
 Ge  Cl  Hg  I  
   2   2   1   2
Cartesian
  1.3064022367536279  0.7575101955744886 17.1900136315555052
  1.3064022405179532  3.2457595260736594 17.8618516334689801
  1.3064022367536279  0.7575101955744882 15.0000000000000018
  1.3064022405179532  3.2457595260736594 20.0518652577974024
  0.6740409342437922  0.4417921467594847 25.7320848611663351
  2.8289280654050719  1.6859168120090691 27.4753353770761493
  0.6740409342437920  2.9300414772586536 23.9888343452565209
