Zr I  Sn Se
 1.0000000000000000
     3.8469512500098331    0.0000000000000000    0.0000000000000000
    -1.9234756250049165    3.3315575096288170    0.0000000000000000
     0.0000000000000000    0.0000000000000000   40.9272844601594841
 Zr  I   Sn  Se 
   1   2   1   2
Cartesian
 -0.6390562445521454  1.4289926670065543 16.9391452359630961
  1.2844193804527713  2.5395118368828262 18.8782904725522265
  1.2844193804527713  2.5395118368828262 15.0000000000000000
  0.4656358601106365  0.9592066872075664 24.3343534405852751
  2.3891114851155528  2.0697258570838386 25.9272844601594841
  0.4656358601106365  3.1802450269601112 22.7414224210110092
