W  Se Si S 
 1.0000000000000000
     3.3119045334294297   -0.0000000000000001    0.0000000000000000
    -1.6557715259568890    2.8684903243917317    0.0000000000000000
     0.0000000000000012    0.0000000000000021   39.9718071242789890
 W   Se  Si  S  
   1   2   1   2
Cartesian
 -0.2313159293874501  1.1464220774658123 16.6792764021964111
  1.4246965842465398  2.1025855189297231 18.3585528043928186
  1.4246965842465398  2.1025855189297227 15.0000000000000000
  2.6199902417324754  0.8424600495760618 23.6461270785576758
  0.9644276907344320  1.7988871067657055 22.3199051707846614
 -0.6918605905413198  2.7554271943436968 24.9718071242789961
