Pd Se Cl Cd
 1.0000000000000000
     3.9665808792218273    0.0012519794577290    0.0000000000000000
    -1.9821972575079354    3.4421507070830186    0.0000000000000000
     0.0000000000000032    0.0000000000000000   40.3663502404547643
 Pd  Se  Cl  Cd 
   1   2   2   2
Cartesian
 -0.4694585326951040  1.6349492866151509 16.1981932105471387
  1.5141963009501358  2.7831675086146430 17.3963864211044772
  1.5141963009501358  2.7831675086146430 15.0000000000000000
  1.0487499969384433 -0.3774986369292926 19.8551959956058894
  1.0612164993386588  4.1893827503001146 25.3663502404547643
  1.0615211328501388  1.8947114836086247 23.9472356561302355
  1.0485037850000696  1.9171709141126401 21.2741471795154773
