Ti Cl S  Ir
 1.0000000000000000
     3.2791675063291144    0.0000000000000000    0.0000000000000000
    -1.6395837522279610    2.8401607254205796    0.0000000000000000
    -0.0000000000000000    0.0000000000000000   41.4647985552909830
 Ti  Cl  S   Ir 
   1   2   2   2
Cartesian
 -0.4473731407007128  1.3388338308540477 16.5858594364141574
  1.1922106127760426  2.2855540726609074 18.1717191271673677
  1.1922106127760426  2.2855540726609074 14.9999999999999964
  1.0005527944488772  0.6438467452845840 21.8145047772708338
  1.0004046975925771  2.5374303516614840 26.4647985552909830
  1.0003623622153375  0.6441952046247958 25.2121302448164357
  1.0005953751629106  2.5370816268260139 23.0671892362851594
