Zr Se Pt S 
 1.0000000000000000
     3.5846838118424129    0.0000000000000000    0.0000000000000000
    -1.7923419059212065    3.1044272455903661    0.0000000000000000
    -0.0000000000000000    0.0000000000000000   41.9489579997759066
 Zr  Se  Pt  S  
   2   2   1   2
Cartesian
  2.0439038446278666  1.3750350144764316 22.5901096623432700
  2.0439038446278666  1.3750350144764316 25.3363521710268529
  0.2515619387066601  2.4098440963398864 20.9775035761446773
  0.2515619387066601  2.4098440963398864 26.9489579997758995
  0.1877885425706171  0.5609549468972571 16.2320273695004715
  1.9801304484918234  1.5957640287607127 17.4640547390009431
  0.1877885425706169  2.6305731106241677 15.0000000000000036
