Bi O  Zn I 
 1.0000000000000000
     4.0381093957255700    0.0000000000000000    0.0000000000000000
    -2.0190546978627850    3.4971053199589721    0.0000000000000000
     0.0000000000000000    0.0000000000000000   40.6301836574658424
 Bi  O   Zn  I  
   2   2   1   2
Cartesian
  2.1918308427337023  1.2769303634257594 15.1279491455499393
  2.1918308427337023  1.2769303634257594 18.2805653489927167
  0.1727761448709172  2.4426321367454165 15.0000000000000000
  0.1727761448709171  2.4426321367454165 18.4085143927414876
  0.6266737140001503 -0.1322517030905690 24.0027778889534567
  2.6457284118629349  1.0334500702290885 25.6301836574658424
  0.6266737140001499  2.1991518435487460 22.3753721204410709
