Zr Te Ru Br
 1.0000000000000000
     3.8514613177199477    0.0000000000000000    0.0000000000000000
    -1.9257306588599743    3.3354633428385636    0.0000000000000000
     0.0000000000000000    0.0000000000000000   40.1813235063659917
 Zr  Te  Ru  Br 
   1   2   1   2
Cartesian
 -0.5040965059609505  1.3706528766563850 16.8615645620742107
  1.4216341528990233  2.4824739909359059 18.7231291241485991
  1.4216341528990233  2.4824739909359059 15.0000000000000018
  0.4674609240123334  0.9378746000662070 23.8644743524163943
  2.3931915828723067  2.0496957143457286 25.1813235063659988
  0.4674609240123331  3.1615168286252504 22.5476251984667897
