Hf Se Cl Pt
 1.0000000000000000
     3.6540877814242623    0.0000000000000002    0.0000000000000000
    -1.8270438896749892    3.1651005965620795    0.0000000000000000
    -0.0000000000000002    0.0000000000000000   40.8739233808612639
 Hf  Se  Cl  Pt 
   1   2   2   2
Cartesian
 -0.3503680317329664  1.4187964423881851 16.6825459715619751
  1.4766758593248779  2.4738299745755450 18.3650919482088710
  1.4766758593248779  2.4738299745755450 15.0000000000000000
 -0.6267422107255535  1.7566777193322656 21.6905933388817473
  3.0262237366537805  1.7578464732026209 25.8739233808612639
  1.2000060079009307  0.7026849796366742 24.5251405166051271
  1.2002242588954291  2.8123172418645894 23.0413774669467557
