C  F  B  N 
 1.0000000000000000
     2.5529632445804618    0.0000000000000000    0.0000000000000000
    -1.2764816222902309    2.2109310247353298    0.0000000000000000
     0.0000000000000011    0.0000000000000020   37.2122974128912247
 C   F   B   N  
   2   2   1   1
Cartesian
  1.2482934317315393  1.0443635903090904 20.3444471610358626
  1.2482934278301701  2.5183176067993096 20.8369297153095374
  1.2482934317315393  1.0443635903090900 18.9690794953063033
  1.2482934278301701  2.5183176067993105 22.2122974128912247
  0.2436306280093285  1.3632666364843027 14.9999999999999982
  1.5201122502995592  0.6262896282391928 14.9999999999999982
