Hg Te I  Ag
 1.0000000000000000
     4.6532759982277803    0.0000000000000000    0.0000000000000000
    -2.3266379978072349    4.0322854309505534    0.0000000000000000
    -0.0000000000000000    0.0000000000000000  -38.3317374547364054
 Hg  Te  I   Ag 
   1   1   2   2
Cartesian
  2.7878247220710466  1.8224915560766688 -22.8190278146062226
  0.4611867233927088  3.1665866997268530 -23.3317374547364054
  1.7662033968132960  0.6117182925445477 -19.1467191956345957
  1.7659377261553184  3.2984971510670480 -15.0000000000000000
  1.7644365880627388  0.6127166082495520 -16.2445847250384929
  1.7677201511259575  3.2974919346102132 -17.9031101845184217
