I  Ag I  Hg
 1.0000000000000000
     4.5152712393820860   -0.0000000000000011    0.0000000000000000
    -2.2576356171118483    3.9286686876368280    0.0000000000000000
     0.0000000000000035    0.0000000000000000   42.5854655094233010
 I   Ag  I   Hg 
   2   2   2   2
Cartesian
  1.2610552073832890  1.1422503515606008 15.0000000000000018
  1.2607974167394851  3.7599876503791676 19.1467191956345957
  1.2593407978493592  1.1432230137686186 17.9021344705961027
  1.2625269793546892  3.7590082647464067 16.2436090111161775
  1.5687501864102285 -0.1877044703920393 21.6612337639266315
  1.5786373492137249  5.0145294582759190 27.5854655094233010
  1.5873381777188997  2.3991561701876676 25.9653531886657092
  1.5655091791354965  2.4237519616410252 23.2818920191794874
