Cl Pd Zn Cl
 1.0000000000000000
     3.6336074038818147   -0.0000057074165551    0.0000000000000000
    -1.8168086454456085    3.1467702727978497    0.0000000000000000
    -0.0000000000000001    0.0000000000000000   40.0660153514541477
 Cl  Pd  Zn  Cl 
   2   2   1   2
Cartesian
 -0.6608364193999841  1.7756123015908134 15.0000000000000000
  2.9728224981293505  1.7755189822548800 19.0602727285529099
  1.1557520229019327  0.7264743672195101 17.7820690337428502
  1.1557447211078948  2.8243443567512707 16.2762156910758300
  0.7125933649992999  0.1146269908085237 23.6985483628720317
  2.5293954191053061  1.1635466101301031 25.0660153514541477
  0.7125900693294993  2.2124719368682371 22.3310813742898944
