Pb I  Te Cd
 1.0000000000000000
     4.5855988219733499   -0.0000000000000000    0.0000000000000000
    -2.2927994096532425    3.9721361809237257    0.0000000000000000
    -0.0000000000000000    0.0000000000000000   41.3431924119716783
 Pb  I   Te  Cd 
   1   2   2   2
Cartesian
 -0.3861592595115397  1.6583930187471529 17.0310965280492539
  1.9066401519196128  2.9824384123883947 19.0621930560985149
  1.9066401519196128  2.9824384123883947 15.0000000000000000
  1.4444976309827338  0.7603764645996397 22.3563908240055227
  1.4446050402886450  3.4079404093052958 26.3431924119716712
  1.4441230215131542  0.7606163509183910 25.4002500334572687
  1.4449811172555558  3.4077001190967722 23.2988833430031335
