Tl Se Tl Te Zn
 1.0000000000000000
     4.2792380110542236   -0.0000000000000000    0.0000000000000000
    -2.1396190042906156    3.7064543603911124    0.0000000000000000
    -0.0000000000000000    0.0000000000000000   43.1426387765049597
 Tl  Se  Tl  Te  Zn 
   1   2   1   2   2
Cartesian
  0.7573179669827436  3.3322881697808047 19.1787999937282194
  2.8967864986678209  2.0962481576502245 15.0000000000000000
  0.7572124939252280  0.8608229671336469 20.4629125901574405
  0.7570620160406534  3.3327111334945156 16.2841092530494400
  1.2084199566964542  0.2096233652417321 24.3828914103576011
  1.2085258840242727  2.6803170152283369 28.1426387765049526
  1.2082872621041485  0.2097088635455894 27.1938499053638694
  1.2086583504571138  2.6802311570408954 25.3320316173625280
