Cl Cd Se Zn
 1.0000000000000000
     4.0036914364792864    0.0012519794577290    0.0000000000000000
    -2.0007525349727233    3.4744526676145182    0.0000000000000000
     0.0000000000000033    0.0000000000000000   41.9826683641153835
 Cl  Cd  Se  Zn 
   2   2   2   2
Cartesian
  1.1521788993389293 -0.2113293388490427 15.0000000000000000
  1.1647484704363347  4.3984009238653927 20.5111542448488748
  1.1650627701392136  2.0821998288545998 19.0920396605243461
  1.1519235677951543  2.1048700242420435 16.4189511839095843
  1.5099823428505439  0.9365441108219231 23.5693647734244038
  1.5108145308996774  3.2531319253630504 26.9826683641153835
  1.5098835680672467  0.9365981199860604 26.2250619550343202
  1.5109132767984792  3.2530779142370605 24.3273463755126400
