W  S  Sn O 
 1.0000000000000000
     3.2027270088744784    0.0000000000000000    0.0000000000000000
    -1.6013635044372392    2.7736429510718472    0.0000000000000000
     0.0000000000000000    0.0000000000000000   39.0939456411806603
 W   S   Sn  O  
   1   2   1   2
Cartesian
 -0.4888999084703154  1.1879689271839053 16.5727974379861855
  1.1124635959669236  2.1125165775411876 18.1455948759723711
  1.1124635959669236  2.1125165775411876 15.0000000000000000
  0.5823809335288634  0.7804049058747923 23.0849833165082465
  2.1837444379661028  1.7049525562320746 24.0939456411806603
  0.5823809335288634  2.6295002065893573 22.0760209918358328
