Ge Cl Se Hf
 1.0000000000000000
     4.2490270840933420   -0.0000000000000002    0.0000000000000000
    -2.1245135408283771    3.6804692703077926    0.0000000000000000
     0.0000000000000010    0.0000000000000017   41.8549110929688766
 Ge  Cl  Se  Hf 
   2   2   2   2
Cartesian
  1.2982874077677125  0.9550316540959557 17.1900136315555017
  1.2982874122911749  3.4086778343011521 17.8618516334689801
  1.2982874077677125  0.9550316540959553 15.0000000000000000
  1.2982874122911752  3.4086778343011521 20.0518652577973988
  1.3084125165693417  0.8962239352276070 23.1636345634330105
  1.3086756055756896  3.3493002693462746 26.8549110929688766
  1.3084735661449420  0.8961568675663760 25.9322829146206217
  1.3086146308545217  3.3493673892451268 24.0867016688117417
