Pd Se Si F 
 1.0000000000000000
     3.9726983325656553    0.0000000000000000    0.0000000000000000
    -1.9863491662804507    3.4404576775728115    0.0000000000000000
     0.0000000000000012    0.0000000000000021   39.8810258359248238
 Pd  Se  Si  F  
   1   2   2   2
Cartesian
 -0.5030104668514143  1.5475000331591287 16.1981932105471387
  1.4833386994322058  2.6943192590167322 17.3963864211044772
  1.4833386994322058  2.6943192590167322 15.0000000000000000
  1.0914016214837194  0.7891096633072059 22.5347697400639255
  1.0914016195092953  3.0827481150224130 23.2385968004842525
  1.0914016214837194  0.7891096633072054 20.8923407046243739
  1.0914016195092953  3.0827481150224134 24.8810258359248238
