Hg Se I  Cd
 1.0000000000000000
     4.4323669550308296    0.0008383076656587    0.0000000000000000
    -2.2154514977984663    3.8457974543051723    0.0000000000000000
     0.0000000000000030    0.0000000000000000   39.4909952028562188
 Hg  Se  I   Cd 
   1   1   2   2
Cartesian
  2.9090697387250279  1.5198032244196924 15.3939973822751686
  0.6931302544485965  2.8014562732995305 15.0000000000000000
  1.1981665417059064 -0.1889283687587965 18.5807875479685194
  1.2098754459202512  4.9069509992959928 24.4909952028562188
  1.2151419322096337  2.3455250616101226 22.8794296042332590
  1.1960238304864710  2.3702776428467476 20.1924053111674553
