Hf I  Sn S 
 1.0000000000000000
     3.7345555754533457   -0.0000000000000000    0.0000000000000000
    -1.8672777877266729    3.2342200001874102    0.0000000000000000
     0.0000000000000000    0.0000000000000000   40.5925918117203963
 Hf  I   Sn  S  
   1   2   1   2
Cartesian
 -0.3404295435770683  1.2194150526038201 16.9476853944779791
  1.5268482441496043  2.2974883859996229 18.8953707810581477
  1.5268482441496043  2.2974883859996229 14.9999999999999964
  0.3349086186947744  0.9031625623084837 24.1150204089359690
  2.2021864064214469  1.9812358957042870 25.5925918117203963
  0.3349086186947744  3.0593092291000898 22.6374490061515488
