Ti Br Pd S 
 1.0000000000000000
     3.5127192749486826    0.0000000000000000    0.0000000000000000
    -1.7563596374743413    3.0421041284688135    0.0000000000000000
     0.0000000000000000    0.0000000000000000   39.7402788503885702
 Ti  Br  Pd  S  
   1   2   1   2
Cartesian
 -0.5748394488794466  1.3919857891845229 16.6938534583278368
  1.1815201885948947  2.4060204986741272 18.3877069173080017
  1.1815201885948947  2.4060204986741272 14.9999999999999982
  0.3161651646290765  0.9536286743043980 23.4952070169840397
  2.0725248021034179  1.9676633837940025 24.7402788503885702
  0.3161651646290765  2.9816980932836072 22.2501351835795091
