Cd F  Si Se
 1.0000000000000000
     3.5101738075585835   -0.0000000000000001    0.0000000000000000
    -1.7548950370083165    3.0404865117394113    0.0000000000000000
     0.0000000000000014    0.0000000000000021   38.6876950872162837
 Cd  F   Si  Se 
   1   2   1   2
Cartesian
  0.7116595849884197 -0.1817429178538103 16.0171616820291440
  2.4668104443580350  0.8317525860593266 17.0343233640583236
  0.7117874961690669  1.8452480899724641 15.0000000000000000
  0.3324117742566193  1.0900169499793828 22.2480700582606410
  2.0880873665437325  2.1026979664698944 20.8084420004007242
  0.3325931923958819  3.1162588132580034 23.6876950872162837
