Br Cu Cd Br
 1.0000000000000000
     4.0073618764707533    0.0000000000000000    0.0000000000000000
    -2.0036809371064694    3.4712911694834263    0.0000000000000000
    -0.0000000000000000    0.0000000000000000   40.7013173680121341
 Br  Cu  Cd  Br 
   2   2   1   2
Cartesian
  1.1267563826834048  0.8430183062062044 15.0000000000000018
  1.1276876190876624  3.1562496076896274 18.6331282326220524
  1.1264041062195327  0.8432492176247670 17.4857902901367552
  1.1280377599190250  3.1560195344674025 16.1476785051133049
  0.6760483732502113  0.2784081231280657 24.1347095172961730
  2.6797293118618906  1.4355051796225409 25.7013173680121234
  0.6760483740028163  2.5926022361170160 22.5681016665802332
