I  Cu Zn I 
 1.0000000000000000
     4.1384420167478977    0.0000000000000000    0.0000000000000000
    -2.0692210071809676    3.5839959165262796    0.0000000000000000
     0.0000000000000000    0.0000000000000000   41.0093104780236857
 I   Cu  Zn  I  
   2   2   1   2
Cartesian
  1.1849422244490511  0.8430355271260338 15.0000000000000000
  1.1849422045521620  3.2323661500902068 18.8558029306400030
  1.1849422244490513  0.8430355271260341 17.6212990317599996
  1.1849422045521618  3.2323661500902063 16.2370991544799992
  0.7102290311917254  0.0881929455967438 24.3819047095113035
  2.7794500399633346  1.2828582511055038 26.0093104780236857
  0.7102290319870459  2.4775235566142637 22.7544989409989178
