Se Ti Se Zn
 1.0000000000000000
     4.0585065238567495    0.0000000000000000    0.0000000000000000
    -2.0292532596100914    3.5158619444233561    0.0000000000000000
     0.0000000000000000    0.0000000000000000   40.3381183712041249
 Se  Ti  Se  Zn 
   2   2   2   2
Cartesian
  1.1998759667619541  0.7991316183367926 15.0000000000000000
  1.1999845815888230  3.1424464630564874 18.5593314578672803
  1.1996806396633430  0.7991998113639623 17.6333181360686559
  1.2001799908025188  3.1423782969278649 15.9260846234147593
  1.2621252016720048  0.9805294126753319 21.9248147805131453
  1.2622300599514487  3.3243045117289767 25.3381183712041249
  1.2620250573171081  0.9805840869427176 24.5805119621230617
  1.2623301750270111  3.3242498354858525 22.6827963826013814
