Al Te Cd Br
 1.0000000000000000
     4.0886916206890005   -0.0000000000000000    0.0000000000000000
    -2.0443458103445007    3.5409108117572421    0.0000000000000000
     0.0000000000000000    0.0000000000000000   41.7969766465483019
 Al  Te  Cd  Br 
   2   2   1   2
Cartesian
  2.4725514121548740  1.6663080195024740 22.9435664160475739
  2.4725514121548740  1.6663080195024740 25.5173847971113723
  0.4282056018103735  2.8466116234215546 21.6639745666107153
  0.4282056018103734  2.8466116234215546 26.7969766465483019
  0.0267786589330714  0.7548522350811384 16.5666078507159362
  2.0711244692775717  1.9351558390002188 18.1332157014318867
  0.0267786589330713  3.1154594429192985 14.9999999999999982
