In S  In Se
 1.0000000000000000
     3.9943897215341249   -0.0000000000000000    0.0000000000000000
    -1.9971948607670624    3.4592429714640014    0.0000000000000000
     0.0000000000000000    0.0000000000000000   44.5152787676963300
 In  S   In  Se 
   2   2   2   2
Cartesian
  2.3226666166139984  1.2560463203284338 16.1777227309346578
  2.3226666166139984  1.2560463203284338 18.9966802391880591
  0.3254717558469364  2.4091273108164342 15.0000000000000000
  0.3254717558469364  2.4091273108164342 20.1744029701158176
  2.2968047639578080  1.5681428595010323 25.4245028305676897
  2.2968047639578080  1.5681428595010323 28.2387485439539567
  0.2996099031907460  2.7212238499890327 24.1479725844275634
  0.2996099031907460  2.7212238499890327 29.5152787676963300
