Sr Cl Te Zn
 1.0000000000000000
     4.2768543229438096   -0.0000000000000000    0.0000000000000000
    -2.1384271602354090    3.7043900259327951    0.0000000000000000
    -0.0000000000000000    0.0000000000000000   40.4397871435157015
 Sr  Cl  Te  Zn 
   1   2   2   2
Cartesian
 -0.5295680323660574  1.6444327436532276 16.6559757380194853
  1.6088591295180121  2.8792294189641594 18.3119514760389706
  1.6088591295180121  2.8792294189641594 15.0000000000000018
  1.3197490599018660  0.7417878645819687 21.6800397773683429
  1.3198549282248457  3.2111054452738541 25.4397871435157015
  1.3196164392251784  0.7418733152669759 24.4909982723746182
  1.3199873208691622  3.2110196349057021 22.6291799843732733
