Pb Br Se Cd
 1.0000000000000000
     4.3802621650653091   -0.0000000000000000    0.0000000000000000
    -2.1901310812609429    3.7946413887623942    0.0000000000000000
     0.0000000000000000    0.0000000000000000   40.5278239155330695
 Pb  Br  Se  Cd 
   1   2   2   2
Cartesian
 -0.4532462250394877  1.7069111652889903 16.8414801415537809
  1.7368848579170706  2.9717916282097883 18.6829602831084465
  1.7368848579170706  2.9717916282097883 15.0000000000000000
  1.1284050735455062  0.7301548548453850 21.9392322992768314
  1.1287563644529879  3.2589867149591267 25.5278239155330695
  1.1280124262188382  0.7303571519418824 24.8295494026613426
  1.1291509315902810  3.2587838373410563 22.6372951365765402
