Ge Te Ga Se
 1.0000000000000000
     3.8839448176625480   -0.0000000000000000    0.0000000000000000
    -1.9419724088312740    3.3635948789926817    0.0000000000000000
     0.0000000000000000    0.0000000000000000   40.0076123314968726
 Ge  Te  Ga  Se 
   1   1   2   2
Cartesian
  1.8340056304537411  1.7347383877343538 16.5598212339094282
 -0.1079667783775325  2.8559366807319142 15.0000000000000000
  2.3119880156039398  1.4896960345281514 21.3549842673882964
  2.3119880156039398  1.4896960345281514 23.8305394771804799
  0.3700156067726663  2.6108943275257119 20.1779114130706674
  0.3700156067726663  2.6108943275257119 25.0076123314968726
