Cr Se F  Pd
 1.0000000000000000
     3.2522962077271202   -0.0000000000000000    0.0000000000000000
    -1.6261481029226457    2.8182721202051133    0.0000000000000000
     0.0000000000000012    0.0000000000000000  -40.5947043844061852
 Cr  Se  F   Pd 
   1   2   2   2
Cartesian
 -0.3673740847658141  1.3253988715913940 -24.0209399417012683
  1.2587740194113843  2.2648229116597651 -22.4471754989963443
  1.2587740194113843  2.2648229116597651 -25.5947043844061923
 -0.5111683830266025  1.8761270162845296 -18.8818537777082369
  2.7394786216973155  1.8800430655651641 -15.0000000000000000
  1.1140355281598195  0.9393808186304251 -16.1326080480190868
  1.1141943284926108  2.8170590833067628 -17.7492963114458320
