Ca Br Hg I 
 1.0000000000000000
     4.3429079653619524   -0.0000000000000000    0.0000000000000000
    -2.1714539826809771    3.7610686243012390    0.0000000000000000
     0.0000000000000000    0.0000000000000000   39.7656075634312174
 Ca  Br  Hg  I  
   1   2   1   2
Cartesian
  0.5317468916462900  0.7944064877443373 16.5603729944674427
  2.7032008743272655  2.0480960291780841 18.1207459889348819
  0.5317468916462891  3.3017855706118309 15.0000000000000000
  0.6343863834781918  0.8606329096098133 23.0223570475214068
  2.8058403661591682  2.1143224510435599 24.7656075634312174
  0.6343863834781913  3.3680119924773066 21.2791065316115890
