In S  In Se Ti
 1.0000000000000000
     3.9805943925203531    0.0000000000000000    0.0000000000000000
    -1.9902971951058355    3.4482247842251050    0.0000000000000000
     0.0000000000000000    0.0000000000000000   42.6718979608852607
 In  S   In  Se  Ti 
   1   2   1   2   2
Cartesian
  0.7195973513628718  3.0264055654480102 18.9926140749650472
  2.7099043992621148  1.8766667909046497 15.0000000000000000
  0.7193821576401556  0.7274307505354585 20.1674250803514425
  0.7193920048196650  3.0266201090905684 16.1748100312234691
  1.1871824667827926  0.2666891998335330 24.1125665030179803
  1.1872889957584574  2.5649240146622252 27.6718979608852607
  1.1869908894257140  0.2667560809824844 26.7458846390866363
  1.1874806536542375  2.5648571598943537 25.0386511264327396
