Hf I  Br Pt
 1.0000000000000000
     3.7646584196210573    0.0000194514724014    0.0000000000000000
    -1.8823123571861395    3.2603152141498359    0.0000000000000000
    -0.0000000000000002   -0.0000000000000000   41.2026827056243192
 Hf  I   Br  Pt 
   1   2   2   2
Cartesian
 -0.2091000432732173  1.5072483405480808 16.9476853944779826
  1.6732347840787742  2.5940330462462935 18.8953707810581477
  1.6732347840787742  2.5940330462462935 15.0000000000000018
 -0.8949391012293003  1.8368637256574103 21.8678314331680923
  2.8695919793859987  1.8370253640635523 26.2026827056243121
  0.9871829627151359  0.7501109176850156 24.7601337894204292
  0.9872260539572691  2.9236229737776598 23.3093731775628612
