Mo Se Ir
 1.0000000000000000
     3.3639354860635877   -0.0000000000000000    0.0000000000000000
    -1.6819677420584072    2.9181675729566914    0.0000000000000000
    -0.0000000000000000    0.0000000000000000   41.7389183224324327
 Mo  Se  Ir 
   1   4   2
Cartesian
 -0.4144461787198783  1.3493510597128719 16.6690294767632032
  1.2675215646363776  2.3220735840317692 18.3380589535264065
  1.2675215646363776  2.3220735840317692 14.9999999999999982
  1.0294096818774734  0.6488886398743898 21.9641745857855142
  1.0291584410982164  2.5935256505846129 26.7389183224324256
  1.0290904251530673  0.6511989994416241 25.3544281166557752
  1.0294777988181012  2.5912133378095143 23.3486956682389319
