Zr I  Zn Br
 1.0000000000000000
     3.8135842836519247    0.0000000000000000    0.0000000000000000
    -1.9067921418259628    3.3026608691156474    0.0000000000000000
     0.0000000000000000    0.0000000000000000   40.6788975058879885
 Zr  I   Zn  Br 
   1   2   1   2
Cartesian
 -0.5554769561896421  1.3693851435813913 16.9391452359630925
  1.3513151856363201  2.4702720999532741 18.8782904725522229
  1.3513151856363201  2.4702720999532741 14.9999999999999964
  0.4320937364832638  0.9359410325576735 24.1962989005563713
  2.3388858783092248  2.0368279889295557 25.6788975058879885
  0.4320937364832638  3.1377149453014379 22.7137002952247684
