Mo Se Zr Cl
 1.0000000000000000
     3.3649317430598655    0.0000000000000000    0.0000000000000000
    -1.6824658715299328    2.9141163714904952    0.0000000000000000
     0.0000000000000000    0.0000000000000000   40.7497379946094682
 Mo  Se  Zr  Cl 
   1   2   1   2
Cartesian
  0.2379380966318608  1.4333088764868585 16.6690294767632032
  1.9204039681617935  2.4046810003170234 18.3380589535264100
  1.9204039681617935  2.4046810003170234 15.0000000000000000
  0.3906711757212173  1.3688573587801951 24.0418387746906745
  2.0731370472511501  2.3402294826103600 25.7497379946094682
  2.0731370472511501  2.3402294826103600 22.3339395547718667
