Hg Te Bi Se Bi
 1.0000000000000000
     4.8244619647572247    0.0000000000000000    0.0000000000000000
    -2.4122309823786123    4.1781066210715405    0.0000000000000000
     0.0000000000000000    0.0000000000000000   38.1610319988829900
 Hg  Te  Bi  Se  Bi 
   1   1   1   2   1
Cartesian
  3.1510107629812696  1.2867352030762571 15.5127096401301792
  0.7387797806026581  2.6794374101001037 15.0000000000000000
  0.6386018593885683  3.7417084318390672 22.8008183105760232
  3.0556278545559796  2.3488578479137820 19.3674363210842273
  0.6379471114506964  0.9560948722334892 23.1610319988829900
  0.6427318957688911  3.7424460016216403 19.7276618627836235
