W  Te Ge S 
 1.0000000000000000
     3.4968173779948479    0.0000000000000000    0.0000000000000000
    -1.7484086889974240    3.0283326817384300    0.0000000000000000
    -0.0000000000000000    0.0000000000000000   40.2825330782454145
 W   Te  Ge  S  
   1   2   1   2
Cartesian
 -0.4937759481411287  1.1491463528438510 16.8119622132334641
  1.2546327408562954  2.1585905800899940 18.6239244264669281
  1.2546327408562954  2.1585905800899940 14.9999999999999964
  0.5491006229358382  0.8909963925086281 23.8855239524089313
  2.2975093119332626  1.9004406197547712 25.2825330782454216
  0.5491006229358382  2.9098848470009142 22.4885148265722457
