S  Zn Ru Br
 1.0000000000000000
     3.8515088445555143    0.0000000000000000    0.0000000000000000
    -1.9257544211574267    3.3357602735080372    0.0000000000000000
    -0.0000000000000000    0.0000000000000000   39.6464211571412761
 S   Zn  Ru  Br 
   2   2   1   2
Cartesian
  1.1674695697893509  0.7126597610746057 15.0000000000000000
  1.1675390439251894  2.9363059888143717 18.1207426419030746
  1.1673448349329412  0.7127073567253245 17.5814600890093473
  1.1676637935519460  2.9362585200172511 15.5394284044792990
  0.7094670593218075 -0.0919666974320443 23.3295720031916716
  2.6352214819730078  1.0199533937373018 24.6464211571412761
  0.7094670600686945  2.1318734849066479 22.0127228492420670
