S  Hf Se Ti
 1.0000000000000000
     4.0948408857930847    0.0000000000000000    0.0000000000000000
    -2.0474204405575041    3.5476977794839488    0.0000000000000000
    -0.0000000000000000    0.0000000000000000   40.2911023184483525
 S   Hf  Se  Ti 
   2   2   2   2
Cartesian
  1.0532178534808803  0.7752537070599019 14.9999999999999982
  1.0535378824040180  3.1398768320675767 18.3254866465823696
  1.0533432307672210  0.7751308385891226 17.6045811352982824
  1.0534124953050652  3.1399997056711957 15.7209963454440516
  1.1585094324723841  1.0464195860433478 21.7317708605810722
  1.1586190196890738  3.4109529501676130 25.2911023184483525
  1.1583123566798987  1.0464883965526599 24.3650889966497317
  1.1588161783317910  3.4108841668004120 22.6578554839958315
