Br Ag In Te In
 1.0000000000000000
     4.4076139497856328   -0.0000000000000000    0.0000000000000000
    -2.2038069736264232    3.8195331431297173    0.0000000000000000
     0.0000000000000000    0.0000000000000000   43.0346378784360084
 Br  Ag  In  Te  In 
   2   2   1   2   1
Cartesian
  1.3448561814507445  0.2647904104420610 15.0000000000000000
  1.3476869194135297  2.8085030832006126 18.8414998721338058
  1.3437267297394866  0.2655686322058231 17.8250159142190121
  1.3488225618556229  2.8077155363391215 16.0173027462489586
  0.6254225188938525  3.3109578398111545 26.6600696878885586
  2.8292360073258909  2.0373816314420243 22.4769058955334984
  0.6253656501736082  0.7642837246655764 28.0346378784360155
  0.6253682798088753  3.3111566985436167 23.8514771036325328
