Br Ag S  Cd
 1.0000000000000000
     4.3747623952859529   -0.0000000000000000    0.0000000000000000
    -2.1873811951440425    3.7925486264763641    0.0000000000000000
     0.0000000000000000    0.0000000000000000   40.6532379861832354
 Br  Ag  S   Cd 
   2   2   2   2
Cartesian
  1.3467832797469446  1.0184844223223459 15.0000000000000018
  1.3495929200142736  3.5442260880475205 18.8414998721338094
  1.3456622462515253  1.0192571460481654 17.8250159142190157
  1.3507200980987499  3.5434441051046042 16.0173027462489586
  1.4440591451453020  0.9217125155710599 22.4158295823358884
  1.4443831353771410  3.4488271007136713 25.6532379861832425
  1.4436817437976446  0.9217840234525976 25.2291794278985613
  1.4447607664851461  3.4487556157002781 22.8397804749954574
