Pb S  Sb Se Sb
 1.0000000000000000
     4.7717725182035231    0.0000000000000000    0.0000000000000000
    -2.3858862591017616    4.1325716844546676    0.0000000000000000
    -0.0000000000000000    0.0000000000000000   39.6176925054722346
 Pb  S   Sb  Se  Sb 
   1   2   1   2   1
Cartesian
  0.3637219984271719  1.2721601897596133 16.0751107127686303
  2.7496082575289336  2.6496840845778360 17.1502214255372607
  2.7496082575289336  2.6496840845778360 15.0000000000000000
  0.5745838064234090  3.6889173811108322 24.3224069687334072
  2.9647158893843555  2.3161435369326235 21.1307423860297234
  0.5737760770010258  0.9341847479188053 24.6176925054722346
  0.5779906622892421  3.6938104606566151 21.4259351713460902
