Cl Pt Ti Te Ti
 1.0000000000000000
     3.6053121939447825    0.0000000000000002    0.0000000000000000
    -1.8026560959352493    3.1228596987203394    0.0000000000000000
    -0.0000000000000002    0.0000000000000000   44.0303202949696342
 Cl  Pt  Ti  Te  Ti 
   2   2   1   2   1
Cartesian
 -0.6169403543145362  1.2954768373786809 15.0000000000000000
  2.9872649800790594  1.2966299932573346 19.1833300419795165
  1.1854240172652528  0.2555505067229085 17.8345471777233797
  1.1856393550055020  2.3370279731856582 16.3507841280650084
  0.6713939913727378  2.7972936353524784 27.2859148292702010
  2.4740999690206058  1.7559848387187749 23.1485950208579041
  0.6711158939086650  0.7153522150231124 29.0303202949696271
  0.6711648959497025  2.7981082043374856 24.8930003089495564
