Ga O  Pd O 
 1.0000000000000000
     3.1133635886166244    0.0000000000000000    0.0000000000000000
    -1.5566817943083122    2.6962519589594809    0.0000000000000000
     0.0000000000000000    0.0000000000000000   39.8888423784150206
 Ga  O   Pd  O  
   2   2   1   2
Cartesian
  1.7070975784107136  1.2302715589141804 15.7491739274520555
  1.7070975784107136  1.2302715589141804 18.2624596435107698
  0.1504157841024016  2.1290222119006739 15.0000000000000000
  0.1504157841024016  2.1290222119006739 19.0116335709628004
 -0.3851156685501694  0.9300442327495400 23.9098222595828531
  1.1715661257581427  1.8287948857360337 24.8888423784150206
 -0.3851156685501694  2.7275455387225271 22.9308021407506821
