Br Ag Se Cd
 1.0000000000000000
     4.4433372425839011   -0.0000000000000000    0.0000000000000000
    -2.2216686187538457    3.8516935007798581    0.0000000000000000
     0.0000000000000000    0.0000000000000000   40.7323167012124117
 Br  Ag  Se  Cd 
   2   2   2   2
Cartesian
  1.3473133741441712  0.9500800457559821 15.0000000000000036
  1.3501670558096113  3.5152107050195749 18.8414998721338094
  1.3461747683342311  0.9508648201242944 17.8250159142190157
  1.3513119025256697  3.5144165270364827 16.0173027462489621
  1.3755236066125969  0.9394156731400978 22.1437250849561735
  1.3758799568849429  3.5062683061742539 25.7323167012124117
  1.3751253052270294  0.9396210117563142 25.0340421883406776
  1.3762802057261023  3.5060623783083713 22.8417879222558824
