Ge Cl S  Hf
 1.0000000000000000
     4.1902112684107387   -0.0000000000000002    0.0000000000000000
    -2.0951056330206725    3.6293620354599634    0.0000000000000000
     0.0000000000000010    0.0000000000000016   41.6548379540687890
 Ge  Cl  S   Hf 
   2   2   2   2
Cartesian
  1.2443592027331112  0.9889216183917585 17.1900136315555017
  1.2443592071828036  3.4084963086984019 17.8618516334689801
  1.2443592027331112  0.9889216183917581 14.9999999999999982
  1.2443592071828036  3.4084963086984019 20.0518652577973953
  1.2421888312921856  0.8594828703878948 23.3293513074864229
  1.2425163130034691  3.2785371223320698 26.6548379540687961
  1.2423171286626702  0.8593571736146860 25.9339324427847053
  1.2423880055918330  3.2786628243562710 24.0503476529304763
