Ba I  Pb Se
 1.0000000000000000
     4.8996121789115143    0.0000000000000000    0.0000000000000000
    -2.4498060894557572    4.2431886156289966    0.0000000000000000
     0.0000000000000000    0.0000000000000000   35.3024811725340797
 Ba  I   Pb  Se 
   1   2   1   2
Cartesian
  0.3668092157720573  1.6607524775912590 18.2577385041701277
  2.8166153052278147  3.0751486828009247 20.3024811725340797
  2.8166153052278147  3.0751486828009247 16.2129958358063107
  0.3621581808819498  1.8282140513388976 16.2130084440828348
  2.8119642703377066  3.2426102565485633 17.4260168881656696
  2.8119642703377066  3.2426102565485633 15.0000000000000000
