Zr Se Ni Se
 1.0000000000000000
     3.5687415796363675    0.0000000000000000    0.0000000000000000
    -1.7843707898181838    3.0906208675069005    0.0000000000000000
     0.0000000000000000    0.0000000000000000  -41.9838838118600393
 Zr  Se  Ni  Se 
   2   2   1   2
Cartesian
  2.0239609891059711  1.3434117831588610 -19.3588483374326330
  2.0239609891059711  1.3434117831588610 -16.6126058287490466
  0.2395901992877875  2.3736187389944945 -20.9714544236312221
  0.2395901992877875  2.3736187389944945 -15.0000000000000018
  0.1859179922034898  0.5663892944936880 -25.7385428683818844
  1.9702887820216728  1.5965962503293214 -24.4932019243650743
  0.1859179922034896  2.6268032061649542 -26.9838838118600393
