Ti Br In O 
 1.0000000000000000
     3.4561623329188742    0.0000000000000000    0.0000000000000000
    -1.7280811664594371    2.9931243799106353    0.0000000000000000
     0.0000000000000000    0.0000000000000000   41.7297735400062706
 Ti  Br  In  O  
   1   2   2   2
Cartesian
 -0.6592591744699953  1.4942179387116912 16.6938534583278368
  1.0688219919894419  2.4919260653485695 18.3877069173080017
  1.0688219919894419  2.4919260653485695 15.0000000000000000
  1.9636760345417530  1.3806520451661246 23.0888387203526513
  1.9636760345417530  1.3806520451661246 25.9391039179739238
  0.2355948680823157  2.3783601718030027 22.2981690953334457
  0.2355948680823157  2.3783601718030027 26.7297735400062635
