F  Pd Ni S 
 1.0000000000000000
     3.3240351649860012   -0.0000000000000000    0.0000000000000000
    -1.6620175815520861    2.8803998796323103    0.0000000000000000
    -0.0000000000000012    0.0000000000000000   39.6132800581046496
 F   Pd  Ni  S  
   2   2   1   2
Cartesian
 -0.5945565572736069  1.6752309557654159 14.9999999999999982
  2.7277930266869279  1.6792333328941913 18.8818537777082369
  1.0664960056029649  0.7178345370077654 17.7492457296891502
  1.0666583087302703  2.6369055198226903 16.1325574662624049
  0.6051597641538999  0.0082465097380453 23.4378461298793965
  2.2671773469605396  0.9683798029488153 24.6132800581046496
  0.6051597647811762  1.9285130961595853 22.2624122016541364
