Ge I  Hg Br
 1.0000000000000000
     4.2218360991291410    0.0000000000000000    0.0000000000000000
    -2.1109180495645710    3.6562173124600337    0.0000000000000000
     0.0000000000000000    0.0000000000000000   39.9810086634032515
 Ge  I   Hg  Br 
   1   2   1   2
Cartesian
  0.6359600308781694  0.9064581683255034 16.7447758939812523
  2.7468780804427397  2.1251972724788475 18.4895517879624975
  0.6359600308781692  3.3439363766321915 15.0000000000000000
  0.8161709255152856  0.8253797908852654 23.3916010872724556
  2.9270889750798550  2.0441188950386096 24.9810086634032587
  0.8161709255152850  3.2628579991919540 21.8021935111416596
