Mo Se B  P 
 1.0000000000000000
     3.2677862954350774    0.0000000000000000    0.0000000000000000
    -1.6338931477175387    2.8299859459854178    0.0000000000000000
     0.0000000000000000    0.0000000000000000   37.2393756933110680
 Mo  Se  B   P  
   1   2   1   1
Cartesian
 -0.0501779091486223  1.0511543418096334 20.5703462165478648
  1.5837152385689162  1.9944829904714394 22.2393756933110680
  1.5837152385689162  1.9944829904714394 18.9013167397846615
  0.3912811490654153  2.1726429896671791 15.0000000000000000
  2.0251742967829545  1.2293143410053733 15.0000000000000000
