Ti Se Ni Se
 1.0000000000000000
     3.5185167857152431    0.0000000000000000    0.0000000000000000
    -1.7592583928576215    3.0471249200713686    0.0000000000000000
     0.0000000000000000    0.0000000000000000   39.5793645748311462
 Ti  Se  Ni  Se 
   1   2   1   2
Cartesian
 -0.5282273652524961  1.2043555364734786 16.6199398271809429
  1.2310310276051255  2.2200638431639348 18.2398796543619497
  1.2310310276051255  2.2200638431639348 15.0000000000000000
  0.4687890707994222  0.9679578306965448 23.3340236308143396
  2.2280474636570435  1.9836661373870008 24.5793645748311462
  0.4687890707994220  2.9993744440774570 22.0886826873361812
