Ti Cl Zr Cl
 1.0000000000000000
     3.3445712452724519    0.0000000000000000    0.0000000000000000
    -1.6722856226362259    2.8964836631728978    0.0000000000000000
     0.0000000000000000    0.0000000000000000   40.5845720011516988
 Ti  Cl  Zr  Cl 
   1   2   1   2
Cartesian
  0.1622737111011539  1.3280724759921183 16.5858594364141609
  1.8345593337373793  2.2935670303830840 18.1717191271673713
  1.8345593337373793  2.2935670303830840 15.0000000000000000
  0.3151370499023364  1.3037867026184711 23.8766727812329052
  1.9874226725385622  2.2692812570094367 25.5845720011516988
  1.9874226725385622  2.2692812570094367 22.1687735613140973
