Sr Cl Ge F 
 1.0000000000000000
     4.2373458846651104   -0.0000000000000000    0.0000000000000000
    -2.1186729423325552    3.6696491807421348    0.0000000000000000
     0.0000000000000013    0.0000000000000022   41.3768033113404954
 Sr  Cl  Ge  F  
   1   2   2   2
Cartesian
 -0.5339574995586116  1.6166733984660369 24.7208275733210137
  1.5847154427739438  2.8398897920467485 26.3768033113404954
  1.5847154427739438  2.8398897920467485 23.0648518353015319
  1.2060769112067542  1.1440659912427209 16.7809067055787082
  1.2060769149078185  3.5904987784041427 17.3739865908562301
  1.2060769112067542  1.1440659912427202 14.9999999999999982
  1.2060769149078185  3.5904987784041436 19.1548933276439861
