Cr Te Zn Cl
 1.0000000000000000
     3.5345214348025804    0.0000000000000000    0.0000000000000000
    -1.7672607174012902    3.0609853527596576    0.0000000000000000
     0.0000000000000000    0.0000000000000000  -40.0087100207438056
 Cr  Te  Zn  Cl 
   1   2   1   2
Cartesian
 -0.2980487540016424  1.0039079562257804 -16.7062363127964879
  1.4692119633996477  2.0242364071456658 -15.0000000000000053
  1.4692119633996477  2.0242364071456658 -18.4124726255929687
  0.7472083262958418  1.0152559930935960 -23.6412430321616753
  2.5144690436971313  2.0355844440134816 -22.2737760435795593
  0.7472083262958418  3.0559128949333672 -25.0087100207438127
