Cd F  Pt S 
 1.0000000000000000
     3.5428703857041666   -0.0000000000000000    0.0000000000000000
    -1.7714351928520811    3.0682157563353858    0.0000000000000000
     0.0000000000000002   -0.0000000000000000   38.0062933710359658
 Cd  F   Pt  S  
   1   2   1   2
Cartesian
  0.5899347980556175  0.9048587635050906 16.0171616820291476
  2.3613699909076997  1.9275973489502189 17.0343233640583271
  0.5899347980556160  2.9503359343953472 15.0000000000000018
  0.6251771726860675  0.7043724949150706 21.7742660015354943
  2.3966123655381515  1.7271110803601992 23.0062933710359658
  0.6251771726860689  2.7498496658053275 20.5422386320350263
