Hf S  Zn Cl
 1.0000000000000000
     3.6255283123416753   -0.0000000000000000    0.0000000000000000
    -1.8127641561708381    3.1397996206276133    0.0000000000000000
    -0.0000000000000000    0.0000000000000000   39.1468770898456739
 Hf  S   Zn  Cl 
   1   2   1   2
Cartesian
  0.5492832974279925  0.8937498175155871 16.4481043019908562
  2.3620474535988301  1.9403496910581248 17.8962086039820498
  0.5492832974279922  2.9869495646006623 15.0000000000000000
  0.5425983197077942  0.4240450275288499 22.7794101012635579
  2.3553624758786311  1.4706449010713871 24.1468770898456739
  0.5425983197077939  2.5172447746139248 21.4119431126814206
