In S  In S  Zn
 1.0000000000000000
     3.9210535388703152    0.0000000000000000    0.0000000000000000
    -1.9605267683148271    3.3959877454830782    0.0000000000000000
    -0.0000000000000000    0.0000000000000000   42.2428055925166888
 In  S   In  S   Zn 
   1   2   1   2   2
Cartesian
  0.6787608578999005  3.0222317247589849 18.9926140749650472
  2.6392973316210617  1.8899103033950893 15.0000000000000018
  0.6785488830086261  0.7580840003026372 20.1674250803514425
  0.6785585828850300  3.0224430182872761 16.1748100312234726
  1.1733819321626251  0.4084844915948545 24.1220629506136106
  1.1734526607433569  2.6722788654490777 27.2428055925166888
  1.1732549450337135  0.4085329465896162 26.7035230396229579
  1.1735796629093158  2.6722305395982682 24.6614913550929131
