Si S  Zr O 
 1.0000000000000000
     3.2868094244410528   -0.0000000000000001    0.0000000000000000
    -1.6432239714627008    2.8467573224970586    0.0000000000000000
     0.0000000000000012    0.0000000000000020   38.5666882111403382
 Si  S   Zr  O  
   1   2   1   2
Cartesian
  2.5055053639654745  0.8071883264635394 16.3262219077730180
  0.8624878711219875  1.7563690524143190 15.0000000000000000
 -0.7812498529098001  2.7056619523832426 17.6519019534943382
 -0.6148080185486349  0.6192355315677451 22.6053562387087581
  1.0286569405911665  1.5681546390667649 23.5666882111403382
 -0.6146875247100845  2.5170737465657842 21.6440242662771780
