Zr Br Cd F 
 1.0000000000000000
     3.5371989948675973   -0.0000000000000000    0.0000000000000000
    -1.7685994974337964    3.0633041877961262    0.0000000000000000
     0.0000000000000002   -0.0000000000000000   39.5087926434661014
 Zr  Br  Cd  F  
   1   2   1   2
Cartesian
 -0.3308248826095603  1.0943530942472268 16.8261924305408073
  1.4377746148242385  2.1154544901792689 18.6523848530272502
  1.4377746148242385  2.1154544901792689 15.0000000000000000
  0.5478392813945085  0.8512778887174137 23.4916309614369219
  2.3164387788283065  1.8723792846494560 24.5087926434661014
  0.5478392813945070  2.8934806805814981 22.4744692794077778
