Pd Se S  Hf
 1.0000000000000000
     4.0745379248869895    0.0000000000000000    0.0000000000000000
    -2.0372689612587980    3.5291859814266342    0.0000000000000000
    -0.0000000000000000    0.0000000000000000   39.0453566706419579
 Pd  Se  S   Hf 
   1   2   2   2
Cartesian
 -0.6052861685103114  1.7272815157378991 16.1981932105471387
  1.4319827943280816  2.9036768428801105 17.3963864211044772
  1.4319827943280816  2.9036768428801105 15.0000000000000000
  1.2371493300151291  0.6854551600476890 20.7198700240595848
  1.2374677714153823  3.0377397408803395 24.0453566706419579
  1.2372740856582725  0.6853329327015094 23.3244511593578672
  1.2373430060082795  3.0378619733325758 21.4408663695036381
