Hf Te Pb S 
 1.0000000000000000
     3.9292218975277562   -0.0000000000000000    0.0000000000000000
    -1.9646109487638781    3.4028059803651329    0.0000000000000000
    -0.0000000000000000    0.0000000000000000   39.0720086046918098
 Hf  Te  Pb  S  
   1   2   1   1
Cartesian
 -0.1028839613695149  1.3644877228409369 22.2225705126671578
  1.8617269873943634  2.4987563829626485 24.0720086046918169
  1.8617269873943634  2.4987563829626485 20.3731324848100499
  2.2254296772565443  1.8710548285937434 16.4391638847389459
  0.2608187284926666  3.0053234887154541 15.0000000000000018
