Zr Te Pb S 
 1.0000000000000000
     3.7983408269005370   -0.0000000000000000    0.0000000000000000
    -1.8991704134502685    3.2894596483274556    0.0000000000000000
    -0.0000000000000000    0.0000000000000000  -42.8612001659021118
 Zr  Te  Pb  S  
   2   2   1   2
Cartesian
  2.1596748349267965  1.4174686729793369 -19.4970846171610752
  2.1596748349267965  1.4174686729793369 -16.8181936022182477
  0.2605044214765283  2.5139552224218220 -21.3152780539108981
  0.2605044214765284  2.5139552224218220 -15.0000000000000036
  0.1910281629262033  0.5978981262624798 -26.3192098078644854
  2.0901985763764719  1.6943846757049650 -24.7772194498268519
  0.1910281629262033  2.7908712251474506 -27.8612001659021189
