Hg Te Ca I 
 1.0000000000000000
     4.6401773385111964    0.0000000000000000    0.0000000000000000
    -2.3200886692555986    4.0185114532155604    0.0000000000000000
     0.0000000000000000    0.0000000000000000  -37.5248877586838105
 Hg  Te  Ca  I  
   1   1   1   2
Cartesian
  3.0488239337585905  1.6024939049641098 -22.0121781185536314
  0.7287352645029925  2.9419977227026299 -22.5248877586838105
  0.6281129764488255  0.5656620565410452 -16.7686769096982751
  2.9482016457044229  1.9051658742795652 -15.0000000000000000
  0.6281129764488250  3.2446696920180855 -18.5373538193965857
