Ge Se Al Se
 1.0000000000000000
     3.7219685462192835    0.0000000000000000    0.0000000000000000
    -1.8609842731096418    3.2233193131125351    0.0000000000000000
     0.0000000000000000    0.0000000000000000  -40.0425695339696404
 Ge  Se  Al  Se 
   1   1   2   2
Cartesian
  1.7329626957940381  1.8406842369444951 -23.5952098002560327
 -0.1280215773156035  2.9151240079820071 -25.0425695339696404
  2.1067299000297792  1.3169649949015625 -18.7553318157725073
  2.1067299000297792  1.3169649949015625 -16.1674793328363116
  0.2457456269201376  2.3914047659390745 -19.9228111486087798
  0.2457456269201376  2.3914047659390745 -15.0000000000000036
