Hf Se Zr Br
 1.0000000000000000
     3.6195585790251794   -0.0000000000000000    0.0000000000000000
    -1.8097792895125897    3.1346296799217095    0.0000000000000000
     0.0000000000000000    0.0000000000000000   41.0098004639121783
 Hf  Se  Zr  Br 
   1   2   1   2
Cartesian
  0.2090040388133798  1.1925712397969002 16.6825459715619751
  2.0187833283259686  2.2374477997708033 18.3650919482088710
  2.0187833283259686  2.2374477997708033 15.0000000000000000
  0.2983020606411634  1.4178881525906277 24.1836080414257388
  2.1080813501537534  2.4627647125645309 26.0098004639121783
  2.1080813501537534  2.4627647125645309 22.3574156108849280
