Mo Te Ge S 
 1.0000000000000000
     3.5178665459196008   -0.0000000000000000    0.0000000000000000
    -1.7589332729598004    3.0465617958897901    0.0000000000000000
     0.0000000000000000    0.0000000000000000   38.9243127135498099
 Mo  Te  Ge  S  
   1   2   1   1
Cartesian
 -0.0984746749068145  1.2428242235187499 22.1192127135498104
  1.6604585980529856  2.2583448221486799 23.9243127135498099
  1.6604585980529856  2.2583448221486799 20.3141127135498110
  2.0147222783286733  1.7573571231102461 16.3610326690029453
  0.2557890053688736  2.7728777217401763 15.0000000000000000
