Sn Se Zr Se
 1.0000000000000000
     3.8298394492040799    0.0000000000000000    0.0000000000000000
    -1.9149197246020400    3.3167382554265354    0.0000000000000000
    -0.0000000000000000    0.0000000000000000   39.6786967116794926
 Sn  Se  Zr  Se 
   1   2   1   2
Cartesian
  0.6679485194485568  0.8099775556219944 16.5929310195742659
  2.5828682440505970  1.9155569740975062 18.1858620391484678
  0.6679485194485568  3.0211363925730179 14.9999999999999982
  0.7137282216705393  0.8908043570174508 23.0980914065474678
  2.6286479462725794  1.9963837754929625 24.6786967116794926
  0.7137282216705393  3.1019631939684742 21.5174861014153151
