Ti Cl Sn O 
 1.0000000000000000
     3.2492679301851881    0.0000000000000000    0.0000000000000000
    -1.6246339650925941    2.8139485712424546    0.0000000000000000
     0.0000000000000000    0.0000000000000000   39.1264420969144169
 Ti  Cl  Sn  O  
   1   2   1   2
Cartesian
 -0.5126791485911781  1.2352105509661502 16.5858594364141609
  1.1119548165014155  2.1731934080469686 18.1717191271673713
  1.1119548165014155  2.1731934080469686 15.0000000000000000
  0.5985328751577049  0.7799883706043065 23.1174797722420102
  2.2231668402502995  1.7179712276851247 24.1264420969144240
  0.5985328751577049  2.6559540847659431 22.1085174475695965
