Pb Te I  Cu
 1.0000000000000000
     4.2504430493619267    0.0000000000000000    0.0000000000000000
    -2.1252215234879825    3.6809916560201099    0.0000000000000000
     0.0000000000000000    0.0000000000000000   39.1134363507576239
 Pb  Te  I   Cu 
   1   1   2   2
Cartesian
  2.6092280738969746  2.0024199134431000 16.6845068820464775
  0.4840065496136716  3.2294171321164700 15.0000000000000000
  1.3763410115123540  0.6934685736664706 20.2576334201176245
  1.3763409910554596  3.1474630232831826 24.1134363507576239
  1.3763410115123542  0.6934685736664710 22.8789324518776205
  1.3763409910554594  3.1474630232831822 21.4947325745976201
