W  S  Pt O 
 1.0000000000000000
     3.1668955592632049    0.0000000000000000    0.0000000000000000
    -1.5834477796316024    2.7426120054540624    0.0000000000000000
     0.0000000000000000    0.0000000000000000   38.9678066363821500
 W   S   Pt  O  
   1   2   1   2
Cartesian
 -0.5322417107141982  1.1773168270199204 16.5727974379861855
  1.0512060689174036  2.0915208288379410 18.1455948759723711
  1.0512060689174036  2.0915208288379410 15.0000000000000000
  0.5767352040792696  0.7899900645424280 23.0248888589286729
  2.1601829837108717  1.7041940663604489 23.9678066363821429
  0.5767352040792696  2.6183980681784695 22.0819710814752028
