Se Zn Hg Br
 1.0000000000000000
     4.1092747631710056    0.0000000000000000    0.0000000000000000
    -2.0546373804215610    3.5588996112343168    0.0000000000000000
     0.0000000000000000    0.0000000000000000   40.4691359411805180
 Se  Zn  Hg  Br 
   2   2   1   2
Cartesian
  1.2501415276047971  0.8742640865533613 15.0000000000000000
  1.2502476967774581  3.2467293370940098 18.4133035906909797
  1.2500401305347402  0.8743194300884659 17.6556971816099164
  1.2503490642019226  3.2466739915589820 15.7579816020882362
  0.7238657350266289  0.0415326466187690 23.8797283650497150
  2.7785031170001111  1.2278325170302078 25.4691359411805180
  0.7238657358025897  2.4141323874416467 22.2903207889189190
