Sn O  Se Ir
 1.0000000000000000
     3.3753703453394679   -0.0000000000000000    0.0000000000000000
    -1.6876851716963472    2.9280704515783036    0.0000000000000000
    -0.0000000000000000    0.0000000000000000   39.4740503735503836
 Sn  O   Se  Ir 
   1   1   2   2
Cartesian
  2.1611666216102403  1.7326567205555512 16.0113936186181363
  0.4734814492649680  2.7086802044149856 14.9999999999999982
  1.1490186534312032  0.5596500491934262 19.6993066369034722
  1.1487665586194051  2.5108862368867060 24.4740503735503871
  1.1486983114732245  0.5619682490267845 23.0895601677737332
  1.1490870019161712  2.5085660772172207 21.0838277193568899
