In S  Zr Se
 1.0000000000000000
     3.8546862552565067    0.0000000000000000    0.0000000000000000
    -1.9273431276282533    3.3382562206708415    0.0000000000000000
    -0.0000000000000000    0.0000000000000000   42.3170821749373829
 In  S   Zr  Se 
   2   2   1   2
Cartesian
  2.1443008992391031  1.4517731497998632 16.1777227309346578
  2.1443008992391031  1.4517731497998632 18.9966802391880627
  0.2169577716108502  2.5645252233568101 15.0000000000000000
  0.2169577716108502  2.5645252233568101 20.1744029701158176
  0.0113127201170098  0.6552153922631365 25.7364768698053510
  1.9386558477452629  1.7679674658200835 27.3170821749373758
  0.0113127201170098  2.8807195393770302 24.1558715646731983
