Ge Se Pd S 
 1.0000000000000000
     3.6098053165620909    0.0000000000000000    0.0000000000000000
    -1.8049026582810455    3.1261831068588979    0.0000000000000000
    -0.0000000000000000    0.0000000000000000   37.5200487041344317
 Ge  Se  Pd  S  
   1   1   1   2
Cartesian
  1.9943360317013086  1.0969738116989034 16.4473597337136113
  0.1894333734202636  2.1390348473185363 15.0000000000000018
  0.7118692718572438  0.2476437359566446 21.2749768707299083
  2.5167719301382889  1.2897047715762775 22.5200487041344388
  0.7118692718572438  2.3317658071959100 20.0299050373253777
