Cl Cd S  Zn
 1.0000000000000000
     3.9273429864778846    0.0012519794577290    0.0000000000000000
    -1.9625783100156333    3.4084254663983060    0.0000000000000000
     0.0000000000000033    0.0000000000000000   41.9254599089192084
 Cl  Cd  S   Zn 
   2   2   2   2
Cartesian
  1.4253691616802675 -0.2216364934073642 15.0000000000000000
  1.4377266901644112  4.3005080229007691 20.5111542448488748
  1.4380211018101783  2.0283152259374835 19.0920396605243461
  1.4251325936889672  2.0505546048934025 16.4189511839095843
  1.1852121447923774  0.9102457150487057 23.8047172670161373
  1.1860117113285789  3.1827484923384946 26.9254599089192084
  1.1850849695714514  0.9102943158939264 26.3861773560254846
  1.1861389016522439  3.1827000211388192 24.3441456714954327
