Ti Te Hg F 
 1.0000000000000000
     3.6979583820486566   -0.0000000000000000    0.0000000000000000
    -1.8489791910243265    3.2025259009917351    0.0000000000000000
     0.0000000000000002    0.0000000000000000   39.3044376902617856
 Ti  Te  Hg  F  
   1   2   1   2
Cartesian
 -0.2188722384019402  1.1329688424745501 16.7885301883608946
  1.6301069526223888  2.2004774761384618 18.5770603767261022
  1.6301069526223888  2.2004774761384618 15.0000000000000000
  0.3284502016382930  0.9781760717505950 23.2757655379015702
  2.1774293926626118  2.0456847054145064 24.3044376902617856
  0.3284502016382912  3.1131933390784177 22.2470933855413833
