Hf Te Mg Br
 1.0000000000000000
     3.8964319423500280   -0.0000000000000000    0.0000000000000000
    -1.9482159711750142    3.3744090461922678    0.0000000000000000
    -0.0000000000000000    0.0000000000000000   40.4673843767609043
 Hf  Te  Mg  Br 
   1   2   1   2
Cartesian
 -0.4081988655191798  1.3454060948446482 16.8494380278571043
  1.5400171056558341  2.4702091102420707 18.6988761198817670
  1.5400171056558341  2.4702091102420707 15.0000000000000000
  0.3645043219120550  0.9436808945013719 23.9603587283451454
  2.3127202930870676  2.0684839098987959 25.4673843767609043
  0.3645043219120548  3.1932869252962197 22.4533330799293829
