Hf Br Ti Se
 1.0000000000000000
     3.4977377314505405    0.0000000000000000    0.0000000000000000
    -1.7488688657252702    3.0291297312115204    0.0000000000000000
     0.0000000000000000    0.0000000000000000   40.9335848245022476
 Hf  Br  Ti  Se 
   1   2   1   2
Cartesian
  0.1493734636568250  1.4077054583937592 16.8486980501143790
  1.8982423293820951  2.4174153687975992 18.6973960898101055
  1.8982423293820951  2.4174153687975992 15.0000000000000018
  0.3047756261494924  1.3812750147957056 24.3136449973212407
  2.0536444918747625  2.3909849251995459 25.9335848245022476
  2.0536444918747625  2.3909849251995459 22.6937051701402979
