Sn S  Zr Se
 1.0000000000000000
     3.7734396807680928   -0.0000000000000000    0.0000000000000000
    -1.8867198403840464    3.2678946231934107    0.0000000000000000
    -0.0000000000000000    0.0000000000000000   38.1727532437138422
 Sn  S   Zr  Se 
   1   1   1   2
Cartesian
  2.2038191792315009  1.4744184058282652 16.4598471617338120
  0.3170993388474546  2.5637166135594018 15.0000000000000000
  0.7125873207307770  0.3734806299655296 21.5921479385818174
  2.5993071611148233  1.4627788376966662 23.1727532437138422
  0.7125873207307770  2.5520770454278026 20.0115426334496647
