Mg I  Zn I 
 1.0000000000000000
     4.1536316510840603    0.0000000000000000    0.0000000000000000
    -2.0768158255420310    3.5971505278019014    0.0000000000000000
     0.0000000000000000    0.0000000000000000   39.7973508322301228
 Mg  I   Zn  I  
   1   2   1   2
Cartesian
  0.5950377440123265  0.7424609343785509 16.6743176566678670
  2.6718535695543553  1.9415111103125189 18.3486353133357305
  0.5950377440123258  3.1405612862464869 15.0000000000000000
  0.6886760701330569  0.9108781586169561 23.1699450637177371
  2.7654918956750865  2.1099283345509230 24.7973508322301228
  0.6886760701330559  3.3089785104848906 21.5425392952053514
