W  Se Ga N 
 1.0000000000000000
     3.2937262353249697    0.0000000000000000    0.0000000000000000
    -1.6468631176624848    2.8524505929027058    0.0000000000000000
     0.0000000000000000    0.0000000000000000   37.2014015390750075
 W   Se  Ga  N  
   1   2   1   1
Cartesian
  0.1678293525245317  1.2879162552966925 16.6792764021964075
  1.8146924701870164  2.2387331195975944 18.3585528043928186
  1.8146924701870164  2.2387331195975944 15.0000000000000000
 -0.0159118346395431  2.0923561926291554 22.2014015390750075
  1.6309512830229420  1.1415393283282533 22.2014015390750075
