Ga S  Ga S 
 1.0000000000000000
     3.6506189468797530   -0.0000000000000000    0.0000000000000000
    -1.8253094759498856    3.1615374951622770    0.0000000000000000
     0.0000000000000000    0.0000000000000000   42.8595450892519736
 Ga  S   Ga  S  
   1   2   3   2
Cartesian
  0.0912407528482670  2.7527320397466357 18.5622918999112834
  1.9166099648730142  1.6988591832884636 15.0000000000000000
  0.0910486468744074  0.6451582098432727 19.6508926861919093
  0.0911083848517655  2.7528228485056538 16.0885996120968606
  2.0986443197897562  1.4424897501000733 24.2867989426446300
  2.0986443197897562  1.4424897501000733 26.7655175038879811
  0.2733348455132106  2.4963355818208317 23.1927713572804777
  0.2733348455132106  2.4963355818208317 27.8595450892519736
