Br Cd Se Zn
 1.0000000000000000
     4.0897710473917321    0.0014024937248978    0.0000000000000000
    -2.0436609170300932    3.5478267182397420    0.0000000000000000
     0.0000000000000033    0.0000000000000000   42.2093478224488337
 Br  Cd  Se  Zn 
   2   2   2   2
Cartesian
  1.2558282008598358 -0.2204690660464507 14.9999999999999982
  1.2690830166908711  4.4864700468863639 20.7228492099077997
  1.2688978296326821  2.1214241514155394 19.2010592037222949
  1.2556011005037981  2.1449102123614034 16.5215258816320940
  1.4807017971675007  0.9901334641403858 23.7960442317578504
  1.4816238198268186  3.3556847121044635 27.2093478224488337
  1.4806009003985521  0.9901886117819046 26.4517414133677704
  1.4817246870901926  3.3556295624587311 24.5540258338460902
