F  Pt Si Se
 1.0000000000000000
     3.4501301877756370    0.0000585085648159    0.0000000000000000
    -1.7248224958261071    2.9886422517690470    0.0000000000000000
    -0.0000000000000000    0.0000000000000019   35.3834990174357671
 F   Pt  Si  Se 
   2   2   1   2
Cartesian
 -0.6582443875405743  1.8005440280685439 14.9999999999999964
  2.7916555087047579  1.8012606629055101 18.7933056562285898
  1.0665845154689373  0.8047272932808057 17.6544166225755816
  1.0668490973110558  2.7970002242353091 16.1389253694520747
  0.8739487364108924  0.2659760228413296 18.9438739884801244
  2.5996104388976615  1.2614285140348822 17.5042459306202076
  0.8741630468338392  2.2576873165708089 20.3834990174357671
