Ca Br Ge I 
 1.0000000000000000
     4.2995719454719330   -0.0000000000000000    0.0000000000000000
    -2.1497859727359669    3.7235385301775743    0.0000000000000000
     0.0000000000000000    0.0000000000000000  -39.9958260616591588
 Ca  Br  Ge  I  
   1   2   1   2
Cartesian
  0.5809872583075016  0.9783513096188994 -23.4354530671917161
  2.7307732310434671  2.2195308196780914 -21.8750800727242734
  0.5809872583075011  3.4607103297372834 -24.9958260616591588
  0.7984424261245948  0.6319681218844596 -16.7447758939812417
  2.9482283988605609  1.8731476319436506 -15.0000000000000000
  0.7984424261245946  3.1143271420028413 -18.4895517879624904
