Sn I  Cl Ag
 1.0000000000000000
     4.4099131186338756    0.0000000000000000    0.0000000000000000
    -2.2049565580601822    3.8271674399241884    0.0000000000000000
    -0.0000000000000000    0.0000000000000000   40.9384357779727921
 Sn  I   Cl  Ag 
   1   2   2   2
Cartesian
 -0.4000450453244487  1.8489261158475967 17.0138547965808051
  1.8049115144114078  3.1246485958223258 19.0277095931616067
  1.8049115144114078  3.1246485958223258 15.0000000000000000
  1.0985263431239201  0.7953344260366121 22.6515792362541930
  1.0940048531805930  3.3415212379934052 25.9384357779727921
  1.0939452889044459  0.7975020341568999 25.6290814285865345
  1.0986218042650611  3.3393348286877957 22.9596276965904593
