Mo Se Zr O 
 1.0000000000000000
     3.2942825971744258    0.0000000000000000    0.0000000000000000
    -1.6471412985872129    2.8529324163980312    0.0000000000000000
     0.0000000000000000    0.0000000000000000  -39.0590764763322937
 Mo  Se  Zr  O  
   1   2   1   2
Cartesian
 -0.5814896562385060  1.2221204318393128 -16.6690294767632068
  1.0656516423487070  2.1730979039719900 -15.0000000000000036
  1.0656516423487070  2.1730979039719900 -18.3380589535264136
  0.6614358499722084  1.0446538650596153 -23.0977445039007208
  2.3085771485594213  1.9956313371922922 -22.1364125314691407
  0.6614358499722084  2.9466088093249692 -24.0590764763322973
