Al O  Pd O 
 1.0000000000000000
     3.0349883961560211    0.0000000000000000    0.0000000000000000
    -1.5174941980780106    2.6283770512621043    0.0000000000000000
     0.0000000000000000    0.0000000000000000   39.8378757270673063
 Al  O   Pd  O  
   2   2   1   2
Cartesian
  1.6399253748165024  1.2394222856084127 15.6681082558091518
  1.6399253748165024  1.2394222856084127 18.2905856942560305
  0.1224311767384918  2.1155479693624475 15.0000000000000018
  0.1224311767384918  2.1155479693624475 18.9586939500651539
 -0.4365693220226604  0.9263718850633857 23.8588556082351424
  1.0809248760553498  1.8024975688174205 24.8378757270673134
 -0.4365693220226604  2.6786232525714553 22.8798354894029750
