Al Te Al I  Zn
 1.0000000000000000
     4.1619572333446015    0.0000000000000035    0.0000000000000000
    -2.0795926510467573    3.6050743519137036    0.0000000000000000
     0.0000000000000014    0.0000000000000024   44.3866664531309709
 Al  Te  Al  I   Zn 
   1   2   1   2   2
Cartesian
  0.2192273961370122  3.2405970064861598 18.8314022027447159
  2.2997886033325532  2.0389095786424076 15.0000000000000018
  0.2182780089597244  0.8371809135103486 20.1000459107870029
  0.2192465736924029  3.2405678361827674 16.2686119692352200
  0.5769652619885787  0.8815533099348851 24.0833164196944693
  0.5667449824728488  3.2743436373818282 29.3866664531309709
  2.6467005273990218  2.0701045063774695 27.9207101585899622
  2.6593154050178853  2.0863065926317068 25.5491656558093041
