Mo Se Hf O 
 1.0000000000000000
     3.2870884234768756    0.0000000000000000    0.0000000000000000
    -1.6435442117384378    2.8467020792167146    0.0000000000000000
     0.0000000000000000    0.0000000000000000  -39.0816013563974423
 Mo  Se  Hf  O  
   1   2   1   2
Cartesian
 -0.5807898769192424  1.2195921114850599 -16.6690294767632068
  1.0627543348191952  2.1684928045572978 -15.0000000000000036
  1.0627543348191952  2.1684928045572978 -18.3380589535264136
  0.6611206820967158  1.0434943446111893 -23.1091717646639836
  2.3046648938351537  1.9923950376834276 -22.1367421729305249
  0.6611206820967158  2.9412957307556660 -24.0816013563974423
