Ga S  Pd S 
 1.0000000000000000
     3.5993611122261169    0.0000000000000000    0.0000000000000000
    -1.7996805561130584    3.1171381605816286    0.0000000000000000
     0.0000000000000000    0.0000000000000000   41.1306632696535388
 Ga  S   Pd  S  
   2   2   1   2
Cartesian
  1.9654272732170162  1.4405095740139684 16.0940275853641523
  1.9654272732170162  1.4405095740139684 18.5727461466075034
  0.1657467171039580  2.4795556275411776 15.0000000000000000
  0.1657467171039580  2.4795556275411776 19.6667737319714995
 -0.1667940065911969  0.7080147573757695 24.8855914362490083
  1.6328865495218612  1.7470608109029788 26.1306632696535388
 -0.1667940065911969  2.7861068644301881 23.6405196028444742
