Br Cu Mg Br
 1.0000000000000000
     3.9180905359068365   -0.0000000000000000    0.0000000000000000
    -1.9590452668245109    3.3939799207251831    0.0000000000000000
    -0.0000000000000000    0.0000000000000000   40.5759091407711523
 Br  Cu  Mg  Br 
   2   2   1   2
Cartesian
  1.1308492804506614  0.8761512095319733 15.0000000000000000
  1.1317597718716621  3.1378631218738180 18.6331282326220524
  1.1305048515915612  0.8763769781811024 17.4857902901367552
  1.1321021126733861  3.1376381727530438 16.1476785051133049
  0.6264572616649812  0.3169088494578846 24.0688834923554005
  2.5855025299946996  1.4482354896996135 25.5759091407711594
  0.6264572624175860  2.5795621299413423 22.5618578439396380
