Al Se Al Se
 1.0000000000000000
     3.7849717409280235   -0.0000000000000000    0.0000000000000000
    -1.8924858704640117    3.2778781880950740    0.0000000000000000
    -0.0000000000000000    0.0000000000000000   43.3124010311261145
 Al  Se  Al  Se 
   1   2   3   2
Cartesian
  0.1022115053675590  2.8652202165407381 18.7386451449391842
  1.9947359628449939  1.7726482975932343 14.9999999999999964
  0.1021156629677393  0.6800987819256452 19.8990279270139645
  0.1021542479479994  2.8652563999077580 16.1603825001332275
  2.0833537202782915  1.5385938326143005 24.5570692153536143
  2.0833537202782915  1.5385938326143005 27.1449216982898065
  0.1908678498142796  2.6312198953126584 23.3895898825173418
  0.1908678498142796  2.6312198953126584 28.3124010311261145
