Sn I  Ge F 
 1.0000000000000000
     4.3349359765955020   -0.0000000000000000    0.0000000000000000
    -2.1674679882977510    3.7541646795115122    0.0000000000000000
     0.0000000000000013    0.0000000000000022   41.5942165042171297
 Sn  I   Ge  F  
   1   2   2   2
Cartesian
 -0.3657575874877163  1.5737944722312023 17.0138547965808016
  1.8017104008100349  2.8251826987350395 19.0277095931616067
  1.8017104008100349  2.8251826987350390 15.0000000000000000
  1.1490475702144021  0.8406638018989255 24.2202298821518518
  1.1490475740007051  3.3434402549065987 24.8133097674293737
  1.1490475702144021  0.8406638018989250 22.4393231765731400
  1.1490475740007051  3.3434402549065996 26.5942165042171297
