Se Zn S  Ti
 1.0000000000000000
     3.9966157494062946   -0.0000000000000000    0.0000000000000000
    -1.9983078724202170    3.4621797670562997    0.0000000000000000
     0.0000000000000000    0.0000000000000000   34.6469133561129041
 Se  Zn  S   Ti 
   2   2   2   2
Cartesian
  1.2570848535424508  0.8471665445499584 15.0000000000000000
  1.2571881127705975  3.1551555540003258 18.4133035906909832
  1.2569862363531865  0.8472203840195720 17.6556971816099200
  1.2572867011270268  3.1551017125851408 15.7579816020882397
  1.2661108658290965  1.0157339898312285 16.4221649767717466
  1.2663262436589064  3.3232453436723954 19.6469133561129041
  1.2660409611546435  1.0157418629356081 18.9036117224773541
  1.2663961762682878  3.3232374741800959 17.1655078954529614
