Ca Br Se Hf
 1.0000000000000000
     4.1922291670539185   -0.0000000000000000    0.0000000000000000
    -2.0961145823086662    3.6312808312685334    0.0000000000000000
     0.0000000000000000    0.0000000000000000   40.6093304996116302
 Ca  Br  Se  Hf 
   1   2   2   2
Cartesian
 -0.4111430949042622  1.6267217967869516 16.7571598031843862
  1.6849714890287952  2.8371487405431290 18.5143196063686446
  1.6849714890287952  2.8371487405431290 15.0000000000000000
  1.3040283908656014  0.7715960444573298 21.9180539700757642
  1.3042879630994877  3.1918877017162015 25.6093304996116302
  1.3040886243746854  0.7715298731365714 24.6867023212633754
  1.3042278034442365  3.1919539245764397 22.8411210754544989
