In Te Tl Te
 1.0000000000000000
     4.4404630433430592    0.0000000000000000    0.0000000000000000
    -2.2202315216715296    3.8455538001010492    0.0000000000000000
    -0.0000000000000000    0.0000000000000000   45.2318193568454774
 In  Te  Tl  Te 
   2   2   2   2
Cartesian
  2.4008529185031340  1.4571548243105670 16.3809543382022582
  2.4008529185031340  1.4571548243105670 19.1931420891205455
  0.1806213968316047  2.7390060910109164 15.0000000000000036
  0.1806213968316047  2.7390060910109164 20.5740964273085325
  2.5654105610418463  1.6923188524893553 25.9479726731318614
  2.5654105610418463  1.6923188524893553 28.8481968090291119
  0.3451790393703169  2.9741701191897048 24.5643500860837634
  0.3451790393703169  2.9741701191897048 30.2318193568454774
