Zr Se Sn S 
 1.0000000000000000
     3.6458457600438616    0.0000000000000000    0.0000000000000000
    -1.8229228800219308    3.1573950464777689    0.0000000000000000
     0.0000000000000000    0.0000000000000000  -42.4193503263050928
 Zr  Se  Sn  S  
   2   2   1   2
Cartesian
  2.0880560826909953  1.4279220861137976 -19.3588483374326330
  2.0880560826909953  1.4279220861137976 -16.6126058287490466
  0.2651332026690648  2.4803871016063872 -20.9714544236312221
  0.2651332026690648  2.4803871016063872 -15.0000000000000018
  0.1931756098305617  0.5686252208110385 -25.9417789235206655
  2.0160984898524927  1.6210902363036281 -24.4642075207362453
  0.1931756098305617  2.6735552517962180 -27.4193503263050928
