Sn Se Ga Se
 1.0000000000000000
     3.8656226532633915   -0.0000000000000000    0.0000000000000000
    -1.9328113266316957    3.3477274191707016    0.0000000000000000
     0.0000000000000000    0.0000000000000000   39.9217030139459510
 Sn  Se  Ga  Se 
   1   1   2   2
Cartesian
  1.8496435178791193  1.5468044588630656 16.5586206887278209
 -0.0831678087525762  2.6627135985866324 15.0000000000000000
  2.3101746931027529  1.4993981283904887 21.2690749498373819
  2.3101746931027529  1.4993981283904887 23.7446301596295655
  0.3773633664710569  2.6153072681140555 20.0920020955197529
  0.3773633664710569  2.6153072681140555 24.9217030139459581
