Mo Se Ni S 
 1.0000000000000000
     3.3366964366229039    0.0000000000000000    0.0000000000000000
    -1.6683482183114520    2.8896638788324482    0.0000000000000000
     0.0000000000000000    0.0000000000000000   39.5712655984548576
 Mo  Se  Ni  S  
   1   2   1   2
Cartesian
 -0.5811086994197463  1.3450073170341734 16.6690294767632068
  1.0872395188917054  2.3082286099783227 18.3380589535264100
  1.0872395188917054  2.3082286099783227 15.0000000000000000
  0.2999499390488040  0.9317430979206019 23.3958316702296010
  1.9682981573602560  1.8949643908647513 24.5712655984548576
  0.2999499390488040  2.8581856838089008 22.2203977420043444
