S  Zn Hg Cl
 1.0000000000000000
     3.9583061218132118    0.0000000000000000    0.0000000000000000
    -1.9791530597862754    3.4282494286682130    0.0000000000000000
    -0.0000000000000000    0.0000000000000000   39.9485003588675909
 S   Zn  Hg  Cl 
   2   2   1   2
Cartesian
  1.1606381086958062  0.6509626359534747 15.0000000000000018
  1.1607095092373958  2.9362629227729951 18.1207426419030782
  1.1605099151057980  0.6510115512678273 17.5814600890093473
  1.1608377180073133  2.9362141378294546 15.5394284044792990
  0.7702946075260979 -0.1065293440937097 23.4888960702832463
  2.7494476688061500  1.0362204654623619 24.9485003588675909
  0.7702946082729856  2.1789702750184334 22.0292917816989231
