Br Hg Pt Te
 1.0000000000000000
     4.0975494345338408    0.0010674728082233    0.0000000000000000
    -2.0478426393020914    3.5550796539653469    0.0000000000000000
     0.0000000000000034    0.0000000000000000   41.9792566234655524
 Br  Hg  Pt  Te 
   2   2   1   2
Cartesian
  1.4559442408854810 -0.1578931090188124 21.2096043503045699
  1.4663741247041768  4.5609818512503653 26.9792566234655524
  1.4707757988790968  2.1880756507476460 25.4274959676255108
  1.4520873816509505  2.2147005440945899 22.7608736444117810
  0.7211725316916179  0.2273162879529730 16.3872142285970313
  2.7702579416134814  1.4130544878135707 17.7744284581505383
  0.7217939170015039  2.5977252148659451 15.0000000000000000
