Hf I  Mg Br
 1.0000000000000000
     3.8283442600570039   -0.0000000000000000    0.0000000000000000
    -1.9141721300285024    3.3154433836417052    0.0000000000000000
     0.0000000000000000    0.0000000000000000   40.6834487962398015
 Hf  I   Mg  Br 
   1   2   1   2
Cartesian
 -0.3634721913447478  1.2742309017505802 16.9476853944779826
  1.5506999386837537  2.3793786962978154 18.8953707810581477
  1.5506999386837537  2.3793786962978154 15.0000000000000000
  0.4750882585475217  0.9395928488306782 24.1764231478240426
  2.3892603885760217  2.0447406433779145 25.6834487962398015
  0.4750882585475213  3.1498884379251506 22.6693974994082801
