Pb Br I  Hg
 1.0000000000000000
     4.3817121043352305   -0.0000000000000011    0.0000000000000000
    -2.1908560508950763    3.8105728781138706    0.0000000000000000
     0.0000000000000034    0.0000000000000000   41.8812990793411544
 Pb  Br  I   Hg 
   1   2   2   2
Cartesian
 -0.5318853811173883  1.6264600155954916 16.8414801415537809
  1.6589706714744070  2.8966509749667808 18.6829602831084465
  1.6589706714744066  2.8966509749667808 15.0000000000000000
  1.1707656888991480 -0.4033947271096677 20.9570673338444848
  1.1803603934651565  4.6424600115626617 26.8812990793411544
  1.1888038572696520  2.1057048636686879 25.2611867585835626
  1.1676205479439681  2.1295613054508244 22.5777255890973372
