Cl Ag Se Cd
 1.0000000000000000
     4.4264656745157271   -0.0000000000000000    0.0000000000000000
    -2.2132328347293964    3.8427254523954444    0.0000000000000000
     0.0000000000000000    0.0000000000000000  -40.5674283547275110
 Cl  Ag  Se  Cd 
   2   2   2   2
Cartesian
  1.5805066785377808  1.2262157352594731 -18.2868565417185991
  1.5759682180792238  3.7827531803663423 -14.9999999999999982
  1.5759084293870773  1.2283921550334704 -15.3093543493862576
  1.5806024988333658  3.7805578829773716 -17.9788080813823328
  1.6111801781335520  1.1624392901259397 -25.5674283547275074
  1.6115351753265463  3.7233154199403953 -21.9788367384712657
  1.6107833891177581  1.1626441506442373 -22.6771112513429962
  1.6119339044033487  3.7231099715444045 -24.8693655174277950
