I  Hg I  In
 1.0000000000000000
     4.4671318820991157   -0.0000000000000011    0.0000000000000000
    -2.2335659384978612    3.8860126538020223    0.0000000000000000
     0.0000000000000036    0.0000000000000000   44.4168028033999889
 I   Hg  I   In 
   2   2   2   2
Cartesian
  1.2573931209884661 -0.2947241883925178 14.9999999999999964
  1.2671748722590823  4.8510258053546478 20.9242317454966695
  1.2757829372801026  2.2640492746255534 19.3041194247390777
  1.2541866675641857  2.2883780140580239 16.6206582552528488
  1.3687891533951451  0.9013748768597509 23.0643382305203559
  1.3688497070622430  3.4914854365183121 29.4168028033999889
  1.3680567275296913  0.9018176542311703 27.5581284039336580
  1.3695822675446614  3.4910431187161528 24.9238212317205878
