I  Cu In Se In
 1.0000000000000000
     4.1308481656037905    0.0000000000000000    0.0000000000000000
    -2.0654240816089136    3.5774194485229245    0.0000000000000000
     0.0000000000000000    0.0000000000000000   42.7450306425329742
 I   Cu  In  Se  In 
   2   2   1   2   1
Cartesian
  1.1300508033762879  0.1817458487546363 15.0000000000000000
  1.1300507835173685  2.5666921596946510 18.8558029306399995
  1.1300508033762882  0.1817458487546367 17.6212990317599960
  1.1300507835173683  2.5666921596946506 16.2370991544799992
  0.8474580920714863  3.1780582090156995 26.4746148934140386
  2.9128905861514927  1.9852213450857494 22.3893026605549323
  0.8473033138946376  0.7928912664175002 27.7450306425329742
  0.8473117234323470  3.1782737816514799 23.6597106252430436
