Ti Te Mg Cl
 1.0000000000000000
     3.6405595120100176    0.0000000000000000    0.0000000000000000
    -1.8202797560050090    3.1528170213897542    0.0000000000000000
    -0.0000000000000000    0.0000000000000000  -42.0499309147349010
 Ti  Te  Mg  Cl 
   2   2   1   2
Cartesian
  2.0988601404694407  1.4298407868056047 -19.0942779024546638
  2.0988601404694407  1.4298407868056047 -16.7151615237054116
  0.2785803844644318  2.4807797939355227 -20.8094364375122680
  0.2785803844644318  2.4807797939355227 -15.0000000000000036
  0.1970360195027789  0.5561794589717208 -25.6770250499907675
  2.0173157755077873  1.6071184661016389 -24.3041191852466305
  0.1970360195027794  2.6580574732315569 -27.0499309147348974
