Hf Br Cd F 
 1.0000000000000000
     3.5061490992334181   -0.0000000000000000    0.0000000000000000
    -1.7530745496167068    3.0364141893920715    0.0000000000000000
     0.0000000000000002   -0.0000000000000000   39.5251745370094412
 Hf  Br  Cd  F  
   1   2   1   2
Cartesian
 -0.3518731190773056  1.0665071413056191 16.8486980501143790
  1.4012014305394043  2.0786452044363091 18.6973960898101055
  1.4012014305394043  2.0786452044363091 15.0000000000000000
  0.4656062804747123  0.9132880805541462 23.5080128549802616
  2.2186808300914205  1.9254261436848368 24.5251745370094412
  0.4656062804747109  2.9375642068155274 22.4908511729511176
