Ca I  Cl Ag
 1.0000000000000000
     4.3929819586718404    0.0000000000000000    0.0000000000000000
    -2.1964909780791642    3.8125046252815276    0.0000000000000000
    -0.0000000000000000    0.0000000000000000   40.7714108580971200
 Ca  I   Cl  Ag 
   1   2   2   2
Cartesian
 -0.3046639984151265  1.8414703076928998 16.9490723290323402
  1.8918269813397124  3.1123051827867423 18.8981446580646519
  1.8918269813397124  3.1123051827867423 15.0000000000000018
  1.0079411064376462  0.8054830509840445 22.4845543163785138
  1.0034369760389623  3.3419147984302424 25.7714108580971129
  1.0033776404471710  0.8076423544673953 25.4620565087108517
  1.0080362010741277  3.3397367657935093 22.7926027767147801
