Bi Se Bi I  Au
 1.0000000000000000
     4.8548097822997995   -0.0000000000000000    0.0000000000000000
    -2.4274048911498989    4.2046228318090826    0.0000000000000000
     0.0000000000000000    0.0000000000000000  -37.5792383448416132
 Bi  Se  Bi  I   Au 
   1   2   1   1   1
Cartesian
  0.9977505893237281  4.1792003360654100 -15.3602136883069669
  3.4299806558327388  2.7775100735586813 -18.7935956777987627
  0.9970917227564415  1.3759079752996750 -15.0000000000000000
  1.0019066053037307  4.1799425868093749 -18.4333701360993665
  0.2235808754848587  2.4084394924087138 -22.5792383448416167
  2.6509857666347592  3.8101965057384604 -22.5792383448416167
