Ge Se Pb O 
 1.0000000000000000
     3.6295649102294316   -0.0000000000000000    0.0000000000000000
    -1.8147824551147158    3.1432954169432730    0.0000000000000000
    -0.0000000000000000    0.0000000000000000   35.8999188485558207
 Ge  Se  Pb  O  
   1   1   1   1
Cartesian
  2.0147576227050186  1.2751504112002878 16.4473597337136113
  0.1999751675903028  2.3229155501813792 15.0000000000000000
  2.1283131607363921  1.1155036798053570 20.8999188485558207
  0.3135307056216766  2.1632688187864479 19.9570784465848057
