Cl Cd Ru Br
 1.0000000000000000
     3.8562346108280900    0.0012519794577290    0.0000000000000000
    -1.9270241233110670    3.3465880354412261    0.0000000000000000
     0.0000000000000033    0.0000000000000000   41.7728754912738651
 Cl  Cd  Ru  Br 
   2   2   1   2
Cartesian
  1.1420693248776244 -0.2813475675298430 14.9999999999999982
  1.1542293625790816  4.1587689747545440 20.5111542448488713
  1.1545052518777412  1.9277919198176403 19.0920396605243425
  1.1418502319076753  1.9496278198913886 16.4189511839095843
  0.6515085444630984  0.3196411767306570 25.4560263373242677
  2.5799902439114688  1.4360051748495519 26.7728754912738651
  0.6522373325317503  2.5511171935107178 24.1391771833746631
