Ga S  Sn S 
 1.0000000000000000
     3.6706417842716159    0.0000000000000000    0.0000000000000000
    -1.8353208921358080    3.1788690333718583    0.0000000000000000
     0.0000000000000000    0.0000000000000000   41.6048614804396522
 Ga  S   Sn  S  
   2   2   1   2
Cartesian
  2.0072480674525730  1.4525474865285133 16.0940275853641523
  2.0072480674525730  1.4525474865285133 18.5727461466075070
  0.1719271753167652  2.5121704976524653 15.0000000000000018
  0.1719271753167652  2.5121704976524653 19.6667737319715030
 -0.0902983766387638  0.6531811437572874 25.1272900776552319
  1.7450225154970445  1.7128041548812400 26.6048614804396522
 -0.0902983766387638  2.7724271660051931 23.6497186748708046
