Cd F  Ge S 
 1.0000000000000000
     3.4778335805162213   -0.0000000000000000    0.0000000000000000
    -1.7389167902581084    3.0118922308616458    0.0000000000000000
     0.0000000000000002   -0.0000000000000000   38.2202859778890556
 Cd  F   Ge  S  
   1   2   1   2
Cartesian
  0.5956731000994773  0.6687103567769084 16.0171616820291476
  2.3345898903575870  1.6726744337307902 17.0343233640583271
  0.5956731000994758  2.6766385106846724 15.0000000000000000
  0.4397108692679022  0.6181278954201932 21.8232768520525617
  2.1786276595260139  1.6220919723740748 23.2202859778890556
  0.4397108692679036  2.6260560493279561 20.4262677262158761
