S  Cd Se Cd
 1.0000000000000000
     4.3840719540780881   -0.0000000000000000    0.0000000000000000
    -2.1920359745347922    3.7994065269276991    0.0000000000000000
     0.0000000000000000    0.0000000000000000   40.4018346810266280
 S   Cd  Se  Cd 
   2   2   2   2
Cartesian
  1.3809839752890845  0.9609434532912674 14.9999999999999982
  1.3813086549769078  3.4926277096394203 18.2374084038473541
  1.3806057708258024  0.9610150904773918 17.8133498455626693
  1.3816870896894708  3.4925560953627923 15.4239508926595672
  1.3036400582153904  0.9977785953167674 21.8132430647703899
  1.3039916554832840  3.5297860475288698 25.4018346810266280
  1.3032470693787563  0.9979811464487629 24.7035601681549011
  1.3043865658003226  3.5295829151463085 22.5113059020700987
