Pt Te Zn I 
 1.0000000000000000
     4.0578577394794184    0.0000000000000000    0.0000000000000000
    -2.0289288697397092    3.5142078873324722    0.0000000000000000
     0.0000000000000000    0.0000000000000000   39.4093038145983741
 Pt  Te  Zn  I  
   1   2   1   2
Cartesian
  0.4625790352046864  0.7135384554836470 16.3872142285970277
  2.4915079049443953  1.8849410845944710 17.7744284581505383
  0.4625790352046864  3.0563437137052949 15.0000000000000000
  0.6963142362612957  0.7064915765405035 22.7818980460859883
  2.7252431060010043  1.8778942056513277 24.4093038145983741
  0.6963142362612953  3.0492968347621523 21.1544922775736026
