Sn Se Ti
 1.0000000000000000
     3.9742542285175890   -0.0000000000000000    0.0000000000000000
    -1.9871271131044534    3.4427340411345515    0.0000000000000000
     0.0000000000000000    0.0000000000000000   39.0549303937570826
 Sn  Se  Ti 
   1   3   2
Cartesian
  2.2396134354508819  1.2727020766345252 16.5586206887278209
  0.2524863215768684  2.4202800903460422 15.0000000000000000
  1.5447951305248062  1.4164070674667220 20.4955989358897952
  1.5449014898257363  3.7109823131780755 24.0549303937570755
  1.5446038583060422  1.4164738421182059 23.1289170719584511
  1.5450928424549224  3.7109155648656640 21.4216835593045545
