Zr Cl Sn O 
 1.0000000000000000
     3.3763666023357457   -0.0000000000000000    0.0000000000000000
    -1.6881833011678729    2.9240192501121074    0.0000000000000000
     0.0000000000000000    0.0000000000000000  -38.3794181054804540
 Zr  Cl  Sn  O  
   1   2   1   1
Cartesian
 -0.1120783295153320  1.2144719539096587 -16.7078992199187901
  1.5761049716525408  2.1891450372803609 -14.9999999999999964
  1.5761049716525408  2.1891450372803609 -18.4157984398375980
  1.9591301246719377  1.7034955179691738 -22.3680244868623141
  0.2709468235040644  2.6781686013398760 -23.3794181054804540
