Al Se Al Si F 
 1.0000000000000000
     3.8682629926868266    0.0000000000000000    0.0000000000000000
    -1.9341314963410363    3.3500105280300767    0.0000000000000000
     0.0000000000000013    0.0000000000000023   42.8483482528220421
 Al  Se  Al  Si  F  
   1   2   1   2   2
Cartesian
  0.8711445203584295  2.8617303172090209 18.7386451449391878
  2.8053154528517639  1.7451154764265362 15.0000000000000000
  0.8710465688703533  0.6285235319261185 19.8990279270139681
  0.8710860029447474  2.8617672968200680 16.1603825001332311
  1.1088871746637108  0.1261624264455549 25.5020921569611474
  1.1088871727412326  2.3595027784656053 26.2059192173814743
  1.1088871746637108  0.1261624264455545 23.8596631215215957
  1.1088871727412326  2.3595027784656053 27.8483482528220421
