Br Hg Br
 1.0000000000000000
     4.1612568124833063    0.0010674728082233    0.0000000000000000
    -2.0796963282768237    3.6102518616780799    0.0000000000000000
     0.0000000000000035    0.0000000000000000   42.5258930230060201
 Br  Hg  Br 
   2   3   2
Cartesian
  1.1768789233554562 -0.3866429334745229 15.0000000000000036
  1.1874517348917453  4.4054544468847592 20.7696522731609861
  1.1919315161600759  1.9957280042436960 19.2178916173209444
  1.1729524289090427  2.0227661097982552 16.5512692941072146
  0.7139915861522657  0.2715536610726190 25.9364854468752171
  2.7949306850488611  1.4756825968374612 27.5258930230060201
  0.7146129714621514  2.6787440597940804 24.3470778707444211
