Pb S  Te Cd
 1.0000000000000000
     4.6979472727103433   -0.0000000000000000    0.0000000000000000
    -2.3489736350217392    4.0694327933377865    0.0000000000000000
    -0.0000000000000000    0.0000000000000000   39.4711594311439455
 Pb  S   Te  Cd 
   1   2   2   2
Cartesian
 -0.5254028350243078  1.7183482517074971 16.0751107127686303
  1.8235708017753414  3.0748258494867589 17.1502214255372607
  1.8235708017753414  3.0748258494867589 15.0000000000000000
  1.3442558360133634  0.9171070289561870 20.4843578431777900
  1.3443658768554667  3.6295224770434724 24.4711594311439455
  1.3438720485072431  0.9173527912381771 23.5282170526295431
  1.3447511678130115  3.6292763009785181 21.4268503621754078
