Pb O  Si Se
 1.0000000000000000
     3.5505764359719327   -0.0000000000000001    0.0000000000000000
    -1.7750963512149931    3.0754762143250294    0.0000000000000000
     0.0000000000000012    0.0000000000000020   37.8057509186344731
 Pb  O   Si  Se 
   1   1   1   2
Cartesian
  2.5518567584861023  1.2029845113069526 15.9428404019710115
  0.7766324960904608  2.2281432494152957 15.0000000000000000
  0.5155303231461046  0.4238569126781051 21.3661258896788304
  2.2914132699862764  1.4481917903004764 19.9264978318189137
  0.5157123577026373  2.4734166232449506 22.8057509186344731
