Cl Ag I  Ag
 1.0000000000000000
     4.4876401732518545    0.0000000000000000    0.0000000000000000
    -2.2438200840625160    3.8969112494496030    0.0000000000000000
    -0.0000000000000000    0.0000000000000000   41.1191054333244992
 Cl  Ag  I   Ag 
   2   2   2   2
Cartesian
  1.3369167918177203  1.0079794837920395 15.0000000000000000
  1.3323156090737105  3.6005663476976322 18.2868565417185991
  1.3322549940918009  1.0101865929924971 17.9775021923323379
  1.3370139363658771  3.5983400946912836 15.3080484603362663
  1.5413076008350330  1.0375840879557754 21.9723862376899035
  1.5410513877332965  3.6341608774345664 26.1191054333244992
  1.5396036825785246  1.0385488876377307 24.8745207082860063
  1.5427703663422554  3.6331894086767491 23.2159952488060775
