Hf Br Pt S 
 1.0000000000000000
     3.5369108578234769    0.0000000000000000    0.0000000000000000
    -1.7684554289117385    3.0630546537961418    0.0000000000000000
     0.0000000000000000    0.0000000000000000   40.0283196803387824
 Hf  Br  Pt  S  
   1   2   1   2
Cartesian
 -0.6042247334465880  1.2810468092227947 16.8486980501143790
  1.1642306954651502  2.3020650271548417 18.6973960898101055
  1.1642306954651502  2.3020650271548417 15.0000000000000000
  0.4196611871633803  0.9598537058920500 23.7962923108383109
  2.1881166160751184  1.9808719238240973 25.0283196803387824
  0.4196611871633801  3.0018901417561445 22.5642649413378393
