Al Te Al Br Cd
 1.0000000000000000
     4.1182621888621664    0.0014024937248978    0.0000000000000000
    -2.0579064917663294    3.5722516683101562    0.0000000000000000
     0.0000000000000035    0.0000000000000000   44.3757198114411722
 Al  Te  Al  Br  Cd 
   1   2   1   2   2
Cartesian
  0.6732135707431529  3.0045708652703236 18.8314022027447123
  2.7319805751660460  1.8142918090477429 15.0000000000000000
  0.6723720269971128  0.6225693506369803 20.1000459107870029
  0.6732325481475091  3.0045419613423681 16.2686119692352165
  1.2121909604834549 -1.1328143516088032 23.6528706015333725
  1.2255267937587455  3.6065231689263104 29.3757198114411722
  1.2253460051680203  1.2251983730876634 27.8539298052556674
  1.2119565886825219  1.2488461228556618 25.1743964831654665
