Mo S  Ga O 
 1.0000000000000000
     3.1584846965433586    0.0000000000000000    0.0000000000000000
    -1.5792423482716793    2.7353279846709322    0.0000000000000000
     0.0000000000000000    0.0000000000000000   41.0177907751868389
 Mo  S   Ga  O  
   1   2   2   2
Cartesian
 -0.5826972115674685  1.2470234297210998 16.5635563231757601
  0.9965451367042109  2.1587994246114106 18.1271126463515202
  0.9965451367042109  2.1587994246114106 15.0000000000000000
  1.6005863024349207  1.2421588008391664 22.7553311316760976
  1.6005863024349207  1.2421588008391664 25.2686168477348154
  0.0213439541632418  2.1539347957294770 22.0061572042240456
  0.0213439541632418  2.1539347957294770 26.0177907751868460
