Sn I  In
 1.0000000000000000
     4.4491293869473427   -0.0000000000000000    0.0000000000000000
    -2.2245646921945141    3.8545231519792900    0.0000000000000000
     0.0000000000000000    0.0000000000000000   43.7274733562233848
 Sn  I   In 
   1   4   2
Cartesian
 -0.2000901165931491  1.5800540782863581 17.0138547965808051
  2.0244745773069082  2.8648951289461211 19.0277095931616103
  2.0244745773069082  2.8648951289461211 15.0000000000000000
  1.4365489222071641  0.7543046298292281 22.3750087833437519
  1.4366092310022902  3.3234267629293610 28.7274733562233848
  1.4358194480102071  0.7547438192455669 26.8687989567570540
  1.4373388392737065  3.3229880293582572 24.2344917845439838
