Ca Cl S  Ti
 1.0000000000000000
     3.9318912038956153   -0.0000000000000000    0.0000000000000000
    -1.9659456008288194    3.4059633911977061    0.0000000000000000
     0.0000000000000000    0.0000000000000000   39.9990502719910879
 Ca  Cl  S   Ti 
   1   2   2   2
Cartesian
 -0.3800154595841609  1.4834486828945019 16.6160803132927661
  1.5859301427366428  2.6187698132937367 18.2321606265855323
  1.5859301427366428  2.6187698132937367 15.0000000000000000
  1.2522233197694188  0.7893698638285556 21.7743018926499268
  1.2524352088390023  3.0594135139993837 24.9990502719910879
  1.2521545471898572  0.7893776090951492 24.2557486383555343
  1.2525040089010906  3.0594057722862198 22.5176448113311451
