Tl S  Hg Br
 1.0000000000000000
     4.1003441409535579   -0.0000000000000000    0.0000000000000000
    -2.0501720704767794    3.5510021903244624    0.0000000000000000
     0.0000000000000000    0.0000000000000000   36.2720873883580879
 Tl  S   Hg  Br 
   2   2   1   2
Cartesian
  2.3020879002168790  1.7046931156220833 17.1883275801028006
  2.3020879002168790  1.7046931156220833 20.0742450718929391
  0.2519158297400997  2.8883605123969041 15.9904852636381225
  0.2519158297400996  2.8883605123969041 21.2720873883580879
 -0.0618230703902595  0.7297399829813479 16.5894075761307960
  1.9883490000865183  1.9134073797561686 18.1788151522615991
 -0.0618230703902601  3.0970747765309894 15.0000000000000000
