Hf Te Cd Cl
 1.0000000000000000
     3.9044649526789330   -0.0000000000000000    0.0000000000000000
    -1.9522324763394667    3.3813658372059621    0.0000000000000000
    -0.0000000000000000    0.0000000000000000   37.7235586631788067
 Hf  Te  Cd  Cl 
   1   2   1   2
Cartesian
  1.5491180092969390 -0.2959330645754858 16.8494380278571079
  3.5013504856364053  0.8311888811598347 18.6988761198817670
  3.5013504856364053  0.8311888811598347 15.0000000000000000
  0.4371919428967889  0.8771305251096403 21.2856872465665141
  2.3894244192362546  2.0042524708449614 22.7235586631788067
  0.4371919428967890  3.1313744165802824 19.8478158299542393
