Hg Te Sr Br
 1.0000000000000000
     4.6717672427264541    0.0000000000000000    0.0000000000000000
    -2.3358836213632275    4.0458691127690898    0.0000000000000000
     0.0000000000000000    0.0000000000000000  -37.1085534633356318
 Hg  Te  Sr  Br 
   1   1   1   2
Cartesian
  3.1353963628627088  1.5445810256758914 -21.5958438232054526
  0.7995127414994819  2.8932040632655882 -22.1085534633356353
  0.6019037109450096  0.5695015516644419 -16.5657235187943890
  2.9377873323082366  1.9181245892541394 -15.0000000000000036
  0.6019037109450094  3.2667476268438365 -18.1314470375887744
