Sn S  Zr Te
 1.0000000000000000
     3.7503616961847976   -0.0000000000000000    0.0000000000000000
    -1.8751808480923988    3.2479085022761307    0.0000000000000000
    -0.0000000000000000    0.0000000000000000   41.2596010356370115
 Sn  S   Zr  Te 
   1   1   2   2
Cartesian
  1.9540573945507680  1.4087800038674780 16.4598471617338120
  0.0788765464583693  2.4914161712928546 15.0000000000000000
  2.0843481220628575  1.2277467230191081 21.7625164184759399
  2.0843481220628575  1.2277467230191081 24.4414074334187674
  0.2091672739704588  2.3103828904444850 19.9443229817261170
  0.2091672739704589  2.3103828904444850 26.2596010356370115
