Zr I  Zr Te
 1.0000000000000000
     3.7888716986359947   -0.0000000000000000    0.0000000000000000
    -1.8944358493179974    3.2812591426986693    0.0000000000000000
     0.0000000000000000    0.0000000000000000   44.0246042869673815
 Zr  I   Zr  Te 
   1   2   2   2
Cartesian
 -0.3317400451523388  1.3997828785121138 16.9391452359630961
  1.5626958041656587  2.4935359260783367 18.8782904725522265
  1.5626958041656587  2.4935359260783367 15.0000000000000000
  2.2415056370365978  1.3683699805510172 24.5275196698063169
  2.2415056370365978  1.3683699805510172 27.2064106847491445
  0.3470697877186008  2.4621230281172406 22.7093262330564940
  0.3470697877186008  2.4621230281172406 29.0246042869673886
