Ga Se Zr Te
 1.0000000000000000
     3.7865588451219674   -0.0000000000000000    0.0000000000000000
    -1.8932794225609837    3.2792561528002895    0.0000000000000000
     0.0000000000000000    0.0000000000000000   45.1312400730658752
 Ga  Se  Zr  Te 
   2   2   2   2
Cartesian
  1.9611562699754199  1.3222417817055634 16.1770728543176290
  1.9611562699754199  1.3222417817055634 18.6526280641098126
  0.0678768474144365  2.4153271659723266 15.0000000000000000
  0.0678768474144365  2.4153271659723266 19.8297009184262052
  2.2287261257747017  1.5035010047060069 25.6341554559048106
  2.2287261257747017  1.5035010047060069 28.3130464708476381
  0.3354467032137188  2.5965863889727698 23.8159620191549877
  0.3354467032137188  2.5965863889727698 30.1312400730658823
