Ge S  Ni S 
 1.0000000000000000
     3.3986013096532384    0.0000000000000000    0.0000000000000000
    -1.6993006548266192    2.9432750714947673    0.0000000000000000
    -0.0000000000000000    0.0000000000000000   38.5561939413284023
 Ge  S   Ni  S  
   1   2   1   2
Cartesian
  0.6578121198508171  0.6939090658785146 16.3970091258366857
  2.3571127746774367  1.6750007563767702 17.7940182516731795
  0.6578121198508171  2.6560924468750260 15.0000000000000000
  0.6385882209011033  0.8979602846790246 22.3807600131031457
  2.3378888757277227  1.8790519751772803 23.5561939413284023
  0.6385882209011033  2.8601436656755359 21.2053260848778926
