Pb Cl S  Hf
 1.0000000000000000
     4.1640434680051550    0.0000000000000000    0.0000000000000000
    -2.0820217328178803    3.6067000555464883    0.0000000000000000
    -0.0000000000000000    0.0000000000000000   40.1577329421129363
 Pb  Cl  S   Hf 
   1   2   2   2
Cartesian
 -0.6765650512520339  1.5931132590199528 16.7004028302812522
  1.4054566831454427  2.7953466108687821 18.4008056605625043
  1.4054566831454427  2.7953466108687821 15.0000000000000000
  1.1653437397347353  0.7526928751814089 21.8322462955305632
  1.1656691763330531  3.1566423901686336 25.1577329421129363
  1.1654712358902524  0.7525679632672805 24.4368274308288491
  1.1655416701990913  3.1567673073009668 22.5532426409746165
