Ga Te Zn I 
 1.0000000000000000
     4.1150553861249701   -0.0000000000000000    0.0000000000000000
    -2.0575276930624851    3.5637425023642058    0.0000000000000000
     0.0000000000000000    0.0000000000000000   42.2563923118388303
 Ga  Te  Zn  I  
   2   2   1   2
Cartesian
  2.2221582961107056  1.5513498553773444 16.2730454743835011
  2.2221582961107056  1.5513498553773444 18.7468688976248288
  0.1646306030482211  2.7392640228320788 15.0000000000000000
  0.1646306030482210  2.7392640228320788 20.0199143598030744
  0.0591340636027285  0.7229107853423535 25.6289865433264445
  2.1166617566652128  1.9108249527970889 27.2563923118388303
  0.0591340636027282  3.0987391202518242 24.0015807748140588
