Se Cd In Te In
 1.0000000000000000
     4.4169235085777681   -0.0000000000000000    0.0000000000000000
    -2.2084617530171728    3.8263910435810522    0.0000000000000000
     0.0000000000000000    0.0000000000000000   42.6150782132557353
 Se  Cd  In  Te  In 
   2   2   1   2   1
Cartesian
  1.2206243133895462  0.1932600095370264 15.0000000000000000
  1.2209785444784766  2.7432505327304493 18.5885916162562417
  1.2202283797348041  0.1934639992474830 17.8903171033845112
  1.2213764140120231  2.7430459576412125 15.6980628372997124
  0.8275721011676477  3.1994563863124581 26.2405100227082748
  3.0360403827524691  1.9235934956376926 22.0573462303532182
  0.8275151123301545  0.6482097653371890 27.6150782132557353
  0.8275177475213784  3.1996556020920623 23.4319174384522491
