Se Ti Cd Cl
 1.0000000000000000
     3.9706491790338179    0.0000000000000000    0.0000000000000000
    -1.9853245883625676    3.4396119766997053    0.0000000000000000
     0.0000000000000000    0.0000000000000000   40.3177085497277403
 Se  Ti  Cd  Cl 
   2   2   1   2
Cartesian
  1.2372967066697582  0.6099680795204127 15.0000000000000000
  1.2374029694927713  2.9024624756273187 18.5593314578672803
  1.2371056079541909  0.6100347936168954 17.6333181360686524
  1.2375941485458204  2.9023957878460229 15.9260846234147593
  0.5858258661274285 -0.0978797959724724 23.8798371331154478
  2.5711504560291174  1.0486575295940963 25.3177085497277403
  0.5858258668969896  2.1951948551606648 22.4419657165031765
