Ge F  Ge I 
 1.0000000000000000
     4.2753835278515275   -0.0000000000000000    0.0000000000000000
    -2.1376917639257638    3.7025907460416594    0.0000000000000000
     0.0000000000000013    0.0000000000000022   41.5539389917351514
 Ge  F   Ge  I  
   2   2   1   2
Cartesian
  1.3045035059343164  0.6387821454891000 16.7809067055787082
  1.3045035096686040  3.1071759761835382 17.3739865908562336
  1.3045035059343164  0.6387821454890994 15.0000000000000000
  1.3045035096686042  3.1071759761835387 19.1548933276439897
  0.6745108441600017  0.0700376554111764 24.8091630977539097
  2.8122026080857658  1.3042345707583958 26.5539389917351514
  0.6745108441600018  2.5384314861056150 23.0643872037726609
