Ga Te Ga Se Hf
 1.0000000000000000
     4.2070465270558284   -0.0000000000000000    0.0000000000000000
    -2.1035232651578077    3.6441490056634409    0.0000000000000000
     0.0000000000000000    0.0000000000000000   42.5941996776914849
 Ga  Te  Ga  Se  Hf 
   1   2   1   2   2
Cartesian
  0.7352361852548875  3.3699641367398887 18.7270307746498332
  2.8388104585064191  2.1552239444974015 15.0000000000000000
  0.7352251476020675  0.9405438923205183 19.9886537406659137
  0.7352761854371306  3.3699526872110055 16.2616350472053277
  1.2489100450238397  0.2934616159080369 23.9029231481556188
  1.2491705328099854  2.7223300637207992 27.5941996776914849
  1.2489704914272504  0.2933952100958869 26.6715714993432300
  1.2491101605214427  2.7223965212550696 24.8259902535343500
