Hf Te Zn Br
 1.0000000000000000
     3.8537187790372114    0.0000000000000000    0.0000000000000000
    -1.9268593895186057    3.3374183616873747    0.0000000000000000
    -0.0000000000000000    0.0000000000000000   40.5609169630653525
 Hf  Te  Zn  Br 
   1   2   1   2
Cartesian
 -0.7321563996863988  1.5451468628331164 16.8494380278571043
  1.1947029898322068  2.6576196500622418 18.6988761198817670
  1.1947029898322068  2.6576196500622418 15.0000000000000000
  0.4705786520629818  0.9740213949685843 24.0783183577337283
  2.3974380415815868  2.0864941821977090 25.5609169630653525
  0.4705786520629821  3.1989669694268339 22.5957197524021254
