Cl Pd Ru Cl
 1.0000000000000000
     3.6307544429897045   -0.0000057074165551    0.0000000000000000
    -1.8153821649995534    3.1442995361892785    0.0000000000000000
    -0.0000000000000001    0.0000000000000000   39.7584375934856098
 Cl  Pd  Ru  Cl 
   2   2   1   2
Cartesian
 -0.6620800351727548  1.7734780013896561 15.0000000000000000
  2.9687258810181549  1.7733847508436100 19.0602727285529099
  1.1530820969903042  0.7251638128205520 17.7820690337428502
  1.1530747983416814  2.8213866249499731 16.2762156910758335
  0.6441338372657258 -0.0481385955214350 23.5310614438700121
  2.4595094109256790  0.9999574449306208 24.7584375934856098
  0.6441305415959265  2.0480591927992320 22.3036853047729764
