Pb Te Pb Cl
 1.0000000000000000
     4.3581792749081592    0.0000000000000000    0.0000000000000000
    -2.1790896374540800    3.7742939663173019    0.0000000000000000
     0.0000000000000000    0.0000000000000000   38.0498927767145432
 Pb  Te  Pb  Cl 
   1   1   1   2
Cartesian
  2.3299246461769774  1.4553061287356230 16.6845068820464775
  0.1508350087228976  2.7134041175080568 15.0000000000000000
  0.7618279408493048  0.3742405590293502 21.5611607184947367
  2.9409175783033836  1.6323385478017838 23.0498927767145432
  0.7618279408493045  2.8904365365742173 20.0724286602749764
