Ca Br Cd I 
 1.0000000000000000
     4.3115411084942714   -0.0000000000000000    0.0000000000000000
    -2.1557705542471357    3.7339041294169562    0.0000000000000000
     0.0000000000000000    0.0000000000000000   39.9063909807362336
 Ca  Br  Cd  I  
   1   2   1   2
Cartesian
  0.6175083494499933  1.0382882002147180 16.5603729944674427
  2.7732789036971282  2.2829229100203707 18.1207459889348783
  0.6175083494499931  3.5275576198260237 14.9999999999999982
  0.7784239501546024  0.7086995245368558 23.1858745589583322
  2.9341945044017375  1.9533342343425077 24.9063909807362336
  0.7784239501546024  3.1979689441481600 21.4653581371804165
