Pb Te Ge F 
 1.0000000000000000
     4.2871135787652985   -0.0000000000000000    0.0000000000000000
    -2.1435567893826493    3.7127492681206617    0.0000000000000000
     0.0000000000000012    0.0000000000000021   39.6165105394625101
 Pb  Te  Ge  F  
   1   1   2   2
Cartesian
  2.5004617450347837  1.5534401141840721 16.6845068820464775
  0.3569049556521343  2.7910232035576255 15.0000000000000000
  1.4448710165914369  0.9114426860460424 22.2425239173972216
  1.4448710203359700  3.3866088647931489 22.8356038026747470
  1.4448710165914369  0.9114426860460418 20.4616172118185133
  1.4448710203359700  3.3866088647931494 24.6165105394625030
