Ru Cl Zr S 
 1.0000000000000000
     3.6377204376466157   -0.0000000000000000    0.0000000000000000
    -1.8188602188233078    3.1503583108678148    0.0000000000000000
     0.0000000000000000    0.0000000000000000  -38.7564089832742056
 Ru  Cl  Zr  S  
   1   2   1   2
Cartesian
  0.7776555629310491  1.0245286718344058 -22.5290328441771734
  2.5965157817543583  2.0746481087903437 -21.3016566945615757
  0.7776555629310506  3.1247675457462818 -23.7564089832742056
  0.8042602840415367  1.0498304106196574 -16.4458824427440611
  2.6231205028648441  2.0999498475755951 -15.0000000000000000
  0.8042602840415366  3.1500692845315337 -17.8917648854881861
