I  Cu Te Zn
 1.0000000000000000
     4.2531681724539974   -0.0000000000000000    0.0000000000000000
    -2.1265840837975212    3.6838772158244515    0.0000000000000000
    -0.0000000000000000    0.0000000000000000   40.8406138995542705
 I   Cu  Te  Zn 
   2   2   2   2
Cartesian
  1.2327935327727890  0.8857748011948212 15.0000000000000000
  1.2327935131265999  3.3416929573573797 18.8558029306399995
  1.2327935327727890  0.8857748011948215 17.6212990317599996
  1.2327935131265999  3.3416929573573797 16.2370991544799992
  1.3377016516605051  0.9786302872161265 22.0808665334069154
  1.3378069344614572  3.4342741882265182 25.8406138995542705
  1.3375697654660295  0.9787152647237246 24.8918250284131837
  1.3379385938864541  3.4341888530274964 23.0300067404118423
