Pd S  Ru Cl
 1.0000000000000000
     3.5732818841933334   -0.0000000000000000    0.0000000000000000
    -1.7866409420966667    3.0945528865941507    0.0000000000000000
     0.0000000000000000    0.0000000000000000   38.3211856088130176
 Pd  S   Ru  Cl 
   1   2   1   2
Cartesian
  0.5153405023163027  0.6315038278660753 16.2450718334045305
  2.3019814444129691  1.6630214567307924 17.4901436668090611
  0.5153405023163027  2.6945390855955091 15.0000000000000000
  0.5908552107346912  0.8931290644215145 22.0938094591974199
  2.3774961528313590  1.9246466932862312 23.3211856088130176
  0.5908552107346927  2.9561643221509484 20.8664333201003878
