Ti Te Zr S 
 1.0000000000000000
     3.7095258234827488    0.0000000000000000    0.0000000000000000
    -1.8547629117413744    3.2125435991304494    0.0000000000000000
    -0.0000000000000000    0.0000000000000000   40.2437623549458579
 Ti  Te  Zr  S  
   1   2   1   2
Cartesian
 -0.3506077065611619  1.2055329036874531 16.7885301883608946
  1.5041552051802125  2.2763807700642698 18.5770603767261022
  1.5041552051802125  2.2763807700642698 15.0000000000000000
  0.4133107214371821  0.8833288111140056 23.7978799122017968
  2.2680736331785560  1.9541766774908220 25.2437623549458579
  0.4133107214371819  3.0250245438676386 22.3519974694576682
