I  In Hg I 
 1.0000000000000000
     4.4329129580933877   -0.0000000000000000    0.0000000000000000
    -2.2164564777675366    3.8404793126331023    0.0000000000000000
     0.0000000000000000    0.0000000000000000   43.8000437974117958
 I   In  Hg  I  
   2   2   1   2
Cartesian
  1.2298312812156496  0.5334344768950217 15.0000000000000036
  1.2298913701971053  3.0931960906584202 21.3524645728796401
  1.2291044658459349  0.5338720661379116 19.4937901734133021
  1.2306183191525977  3.0927589555999067 16.8594830012002319
  0.7731811471967061  0.2187854652195002 27.0567932815019745
  2.9896376266697873  1.4989452360972009 28.8000437974117887
  0.7731811480494777  2.7791050069749019 25.3135427655921603
