S  Cd Ge F 
 1.0000000000000000
     4.2829136851794054   -0.0000000000000000    0.0000000000000000
    -2.1414568413571624    3.7105778176792739    0.0000000000000000
    -0.0000000000000013   -0.0000000000000022  -40.9461509827316519
 S   Cd  Ge  F  
   2   2   2   2
Cartesian
  1.5378288470774293  0.9824931383166644 -18.2374084038473541
  1.5381460342829847  3.4549875598519013 -14.9999999999999982
  1.5374593693205281  0.9825631006520634 -15.4240585582846812
  1.5385157369763849  3.4549176198903830 -17.8134575111877851
  1.1385411711637130  1.1288876296048591 -24.1652442771529401
  1.1385411757262713  3.6026061747243743 -23.5721643918754182
  1.1385411711637130  1.1288876296048587 -25.9461509827316483
  1.1385411757262713  3.6026061747243743 -21.7912576550876622
