Sb Se Sb I  Au
 1.0000000000000000
     4.8043268496475786   -0.0000000000000000    0.0000000000000000
    -2.4021634248237884    4.1609987922846940    0.0000000000000000
    -0.0000000000000000    0.0000000000000000   37.3323570783014418
 Sb  Se  Sb  I   Au 
   1   2   1   1   1
Cartesian
  0.7632651029462684  3.8831528427213189 18.1916645827036803
  3.1697033177957223  2.5009359705512453 15.0000000000000000
  0.7624518629738252  1.1094709722054210 18.4869501194425112
  0.7666952013104845  3.8880795807515733 15.2951927853163667
 -0.0014932403955802  1.9055159701616509 22.3323570783014418
  2.4006701844282099  3.2927293952079331 22.3323570783014418
