Zr I  Pb S 
 1.0000000000000000
     3.8890874021424695   -0.0000000000000000    0.0000000000000000
    -1.9445437010712348    3.3680484877934056    0.0000000000000000
    -0.0000000000000000    0.0000000000000000   39.2530707781512831
 Zr  I   Pb  S  
   1   2   1   1
Cartesian
 -0.1030974707224788  1.3521511191943647 22.3139255415621491
  1.8414462303487558  2.4748339484588331 24.2530707781512831
  1.8414462303487558  2.4748339484588331 20.3747803055990566
  2.2007509225342310  1.8613859880030204 16.4391638847389459
  0.2562072214629965  2.9840688172674890 15.0000000000000036
