Bi O  Mg Br
 1.0000000000000000
     3.9299286863158560    0.0000000000000000    0.0000000000000000
    -1.9649643431579282    3.4034180774107377    0.0000000000000000
     0.0000000000000000    0.0000000000000000   34.8515837897027581
 Bi  O   Mg  Br 
   2   2   1   2
Cartesian
  2.3323915225371810  1.3364798627104197 16.5710185425112115
  2.3323915225371810  1.3364798627104197 19.7236347459539871
  0.3674271793792528  2.4709525551806659 16.4430693969612705
  0.3674271793792527  2.4709525551806659 19.8515837897027581
  0.8179492519920455  0.0558192079644276 16.5070256484157625
  2.7829135951499717  1.1902919004346746 18.0140512968315214
  0.8179492519920453  2.3247645929049217 15.0000000000000000
