Hg F  Pd S 
 1.0000000000000000
     3.6062658086253148   -0.0000000000000000    0.0000000000000000
    -1.8031329043126556    3.1231178030687516    0.0000000000000000
     0.0000000000000002    0.0000000000000000   37.9244091044032245
 Hg  F   Pd  S  
   1   2   1   2
Cartesian
  0.5627839262505285  0.7159480699580076 16.0286721523601869
  2.3659168305631768  1.7569873376475913 17.0573443047204023
  0.5627839262505269  2.7980266053371752 15.0000000000000000
  0.4757673783132875  0.6882726936300995 21.6793372709986940
  2.2789002826259450  1.7293119613196832 22.9244091044032245
  0.4757673783132886  2.7703512290092673 20.4342654375941635
