Tl Se Pb Cl
 1.0000000000000000
     4.3075536210454946    0.0000000000000000    0.0000000000000000
    -2.1537768105227473    3.7304508639890441    0.0000000000000000
     0.0000000000000000    0.0000000000000000   41.7043880135103535
 Tl  Se  Pb  Cl 
   2   2   1   2
Cartesian
  2.4544505164942607  1.6189824306881229 22.5233891469047265
  2.4544505164942607  1.6189824306881229 25.4165579310676080
  0.3006737059715135  2.8624660520178038 21.2355591054659882
  0.3006737059715135  2.8624660520178038 26.7043880135103535
  0.2447534742905870  0.6292764483872891 16.4887320582197603
  2.3985302848133334  1.8727600697169702 17.9774641164395668
  0.2447534742905869  3.1162436910466509 15.0000000000000000
