Sn Se S  Zn
 1.0000000000000000
     3.9147133748675511   -0.0000000000000000    0.0000000000000000
    -1.9573566863134451    3.3904970023925252    0.0000000000000000
     0.0000000000000000    0.0000000000000000  -38.5995070413366932
 Sn  Se  S   Zn 
   1   1   2   2
Cartesian
  2.2438802086066874  1.1758855431228468 -22.0408863526088723
  0.2865235215463557  2.3060512105870217 -23.5995070413366932
  1.4672378907623052  1.3333941584048514 -18.1207426419030746
  1.4673085049793686  3.5935283561193918 -15.0000000000000000
  1.4671111089657658  1.3334425350560066 -15.5392825528937273
  1.4674353017886412  3.5934801084033845 -17.5813142374237792
