Zr Cl Si Se
 1.0000000000000000
     3.4591768431325622   -0.0000000000000001    0.0000000000000000
    -1.7293965547953078    2.9963218450305802    0.0000000000000000
     0.0000000000000012    0.0000000000000021   40.0789498295907265
 Zr  Cl  Si  Se 
   1   2   1   2
Cartesian
 -0.5536911779111510  1.3070895234045075 16.7078992199188079
  1.1759611992454546  2.3058634717480340 18.4157984398376016
  1.1759611992454544  2.3058634717480340 15.0000000000000000
  0.6515564416740597  0.8353073363914199 23.6393248006350838
  2.3817259275083074  1.8332786281707776 22.1996967427751670
  0.6517370817597417  2.8321169702496292 25.0789498295907265
