Zr Br Zr Se
 1.0000000000000000
     3.5790124210058432    0.0000000000000000    0.0000000000000000
    -1.7895062105029216    3.0995156770511070    0.0000000000000000
    -0.0000000000000000    0.0000000000000000   43.4067970796286389
 Zr  Br  Zr  Se 
   1   2   2   2
Cartesian
 -0.3739516718130554  1.3775341758700392 16.8261924305408073
  1.4155545386898660  2.4107060682204082 18.6523848530272502
  1.4155545386898660  2.4107060682204082 14.9999999999999982
  1.9109203237809642  1.2584507281215014 24.0479487421960059
  1.9109203237809642  1.2584507281215014 26.7941912508795852
  0.1214141132780428  2.2916226204718702 22.4353426559974096
  0.1214141132780428  2.2916226204718702 28.4067970796286318
