Ca Cl Si F 
 1.0000000000000000
     3.9450843443124350    0.0000000000000000    0.0000000000000000
    -1.9725421721538408    3.4165432622457179    0.0000000000000000
     0.0000000000000012    0.0000000000000022   40.6918447916493946
 Ca  Cl  Si  F  
   1   2   2   2
Cartesian
 -0.5092498656044836  1.5732212911985501 16.6160803132927661
  1.4632923065525261  2.7120690452804559 18.2321606265855323
  1.4632923065525261  2.7120690452804559 15.0000000000000000
  1.1792832055514064  0.7451981196604937 23.3455886957884999
  1.1792832035907173  3.0228936278243053 24.0494157562088269
  1.1792832055514064  0.7451981196604932 21.7031596603489483
  1.1792832035907173  3.0228936278243062 25.6918447916493946
