Cr Te Ni S 
 1.0000000000000000
     3.4119059807142698    0.0000000000000000    0.0000000000000000
    -1.7059529903571349    2.9547972546226164    0.0000000000000000
     0.0000000000000000    0.0000000000000000   37.7793952872534433
 Cr  Te  Ni  S  
   1   2   1   2
Cartesian
  1.2307591128350803 -0.6146328882118225 16.7062363127964808
  2.9367121031922148  0.3702995299957161 18.4124726255929652
  2.9367121031922148  0.3702995299957161 15.0000000000000000
  0.5516751197622192  0.8999441645720572 21.6039613590281867
  2.2576281101193540  1.8848765827795959 22.7793952872534433
  0.5516751197622192  2.8698090009871349 20.4285274308029301
