W  S  Hf O 
 1.0000000000000000
     3.2201870043787513    0.0000000000000000    0.0000000000000000
    -1.6100935021893756    2.7887637507285099    0.0000000000000000
     0.0000000000000000    0.0000000000000000   39.0010547049711676
 W   S   Hf  O  
   1   2   1   2
Cartesian
 -0.5722607875671091  1.1268952584813643 16.5727974379861891
  1.0378327146222661  2.0564831753908677 18.1455948759723711
  1.0378327146222661  2.0564831753908677 15.0000000000000018
  0.5168862622466458  0.8609572044744458 23.0286251132377089
  2.1269797644360215  1.7905451213839489 24.0010547049711676
  0.5168862622466458  2.7201330382934521 22.0561955215042502
