Se Hf Zn I 
 1.0000000000000000
     4.1827546520849292   -0.0000000000000000    0.0000000000000000
    -2.0913773248241716    3.6230756606168524    0.0000000000000000
     0.0000000000000000    0.0000000000000000   40.8743370624067026
 Se  Hf  Zn  I  
   2   2   1   2
Cartesian
  1.2363581571360223  0.7486775224193493 15.0000000000000000
  1.2366171427337243  3.1635003363148417 18.6912765295358660
  1.2364182545162683  0.7486115006180041 17.7686483511876112
  1.2365571190403997  3.1635664095392100 15.9230671053787347
  0.7141092430365021  0.1998754611761763 24.2469312938943169
  2.8054865694850641  1.4075673480484605 25.8743370624067026
  0.7141092438486971  2.6152592349207451 22.6195255253819312
