Se Hf S  Zr
 1.0000000000000000
     4.2304696874939438    0.0000000000000000    0.0000000000000000
    -2.1152348413304596    3.6648998274643505    0.0000000000000000
    -0.0000000000000000    0.0000000000000000   40.3134300642542911
 Se  Hf  S   Zr 
   2   2   2   2
Cartesian
  1.3091626696695053  0.9106621254986282 14.9999999999999982
  1.3094246104509824  3.3533612416677299 18.6912765295358625
  1.3092234526143554  0.9105953415528805 17.7686483511876077
  1.3093639020336421  3.3534280776301189 15.9230671053787329
  1.2725654084270199  1.0131663342033783 21.9855683481426709
  1.2728529902666388  3.4559729459637776 25.3134300642542911
  1.2726362078135507  1.0130831027621752 24.6093769508843891
  1.2727821797944907  3.4560561803930998 22.6896594678451393
