Tl Se Ge I 
 1.0000000000000000
     4.2615411891754906    0.0000000000000000    0.0000000000000000
    -2.1307705945877453    3.6906029290997204    0.0000000000000000
     0.0000000000000000    0.0000000000000000   42.9310379041828440
 Tl  Se  Ge  I  
   2   2   1   2
Cartesian
  2.3451500766128368  1.6489744132903370 16.2878300414387454
  2.3451500766128368  1.6489744132903370 19.1809988256016268
  0.2143794820250914  2.8791753896569099 15.0000000000000018
  0.2143794820250914  2.8791753896569099 20.4688289080443653
 -0.0938777636143711  0.7672644242565620 26.1862620102016024
  2.0368928309733745  1.9974654006231349 27.9310379041828440
 -0.0938777636143709  3.2276663769897080 24.4414861162203465
