Ti F  Ge O 
 1.0000000000000000
     2.8744680415642612    0.0000000000000000    0.0000000000000000
    -1.4372340207821306    2.4893623463611521    0.0000000000000000
    -0.0000000000000001   -0.0000000000000000  -38.4042590701804230
 Ti  F   Ge  O  
   1   2   1   2
Cartesian
 -0.5332629348047532  1.0653086173252504 -16.3005114429606266
  0.9039710859773767  1.8950960661123011 -14.9999999999999982
  0.9039710859773767  1.8950960661123011 -17.6010226315821896
  0.5710051630101071  0.9978877785950730 -22.4248182862321030
  2.0082391837922375  1.8276752273821237 -21.4453775022837760
  0.5710051630101071  2.6574626761691746 -23.4042590701804301
