I  Cu Ge I 
 1.0000000000000000
     4.2387129984481557    0.0000000000000000    0.0000000000000000
    -2.1193564980310970    3.6708331339411071    0.0000000000000000
     0.0000000000000000    0.0000000000000000   41.2213806088999135
 I   Cu  Ge  I  
   2   2   1   2
Cartesian
  1.1946678561793953  0.7708074781203976 15.0000000000000000
  1.1946678357811511  3.2180295796505796 18.8558029306399995
  1.1946678561793955  0.7708074781203980 17.6212990317599996
  1.1946678357811509  3.2180295796505796 16.2370991544799992
  0.6470870905764328 -0.0493501475087299 24.4766047149186683
  2.7664435901981710  1.1742608971383053 26.2213806088999135
  0.6470870913717534  2.3978719417853407 22.7318288209374195
