Sn Te Ge Br Ge Br
 1.0000000000000000
     4.2099995050419636   -0.0506467540195988    0.0000000000000001
    -2.0612224349865285    3.6715828941954394    0.0000000000000001
     0.0000000000000021   -0.0000000000000000   37.5296686173980305
 Sn  Te  Ge  Br  Ge  Br 
   1   1   1   1   1   1
Cartesian
  4.7351192236527542  1.3600215645378595 16.6861605505646402
  2.6447119103099239  2.6007647806095382 15.0000000000000000
  1.9997387369060178  2.1345089418564136 19.5003199272321659
 -0.1249357387759186  0.9419684062052998 22.5296686173980305
 -0.1204326413644220  0.9442541142522771 20.1795439283269644
 -2.2103019000142634  2.1824876774711290 17.1501777078553026
