S  Ti Cd Br
 1.0000000000000000
     3.9899967348183751   -0.0000000000000000    0.0000000000000000
    -1.9949983662901996    3.4562842570771983    0.0000000000000000
     0.0000000000000000    0.0000000000000000   40.2507625485891936
 S   Ti  Cd  Br 
   2   2   1   2
Cartesian
  1.1337634210122114  0.6864889487806033 15.0000000000000000
  1.1339784413697453  2.9900709987933243 18.2247483793411575
  1.1336936321107220  0.6864968084784097 17.4814467457056075
  1.1340482581598987  2.9900631427014468 15.7433429186812148
  0.7280146996387307 -0.1366320958598328 23.6841546978732431
  2.7230130674209145  1.0154626564992328 25.2507625485891936
  0.7280147003847228  2.1675574088582987 22.1175468471573033
