Se Ti S  Ti
 1.0000000000000000
     3.9798081530549303   -0.0000000000000000    0.0000000000000000
    -1.9899040742541356    3.4483896045821143    0.0000000000000000
     0.0000000000000000    0.0000000000000000   40.1432359727182586
 Se  Ti  S   Ti 
   2   2   2   2
Cartesian
  1.2081258242751673  0.8624581115818636 15.0000000000000000
  1.2082323329553861  3.1608027788437281 18.5593314578672803
  1.2079342847581072  0.8625249959276411 17.6333181360686524
  1.2084239529952399  3.1607359208802914 15.9260846234147593
  1.3511350829611022  0.9948869116222745 21.9184875933771011
  1.3513495550286740  3.2932072474858991 25.1432359727182586
  1.3510654722677633  0.9948947533673957 24.3999343390827086
  1.3514191935394619  3.2931994093384702 22.6618305120583159
