Mg Br Zr Se
 1.0000000000000000
     3.8391856461589882   -0.0000000000000000    0.0000000000000000
    -1.9195928230794945    3.3248322994182593    0.0000000000000000
    -0.0000000000000000    0.0000000000000000   39.4856976889954652
 Mg  Br  Zr  Se 
   1   2   1   2
Cartesian
  0.6042003974708955  0.8581111625558138 16.5070256484157625
  2.5237932205503881  1.9663885956952345 18.0140512968315214
  0.6042003974708952  3.0746660288346552 15.0000000000000000
  0.5116246295947837  0.7429878071273274 22.9050923838634404
  2.4312174526742774  1.8512652402667467 24.4856976889954652
  0.5116246295947835  2.9595426734061663 21.3244870787312877
