Pb I  Br Ag
 1.0000000000000000
     4.4682369760610436   -0.0000000000000000    0.0000000000000000
    -2.2341184867641282    3.8720342239385142    0.0000000000000000
     0.0000000000000000    0.0000000000000000   41.6778129146536287
 Pb  I   Br  Ag 
   1   2   2   2
Cartesian
 -0.1820467625038263  1.4846009736775398 24.6467163866043677
  2.0520717259488270  2.7752790483237111 26.6778129146536287
  2.0520717259488270  2.7752790483237111 22.6156198585551103
  1.3191654329054154  1.3014971332997853 15.0000000000000018
  1.3220351052786832  3.8801742008108935 18.8414998721338094
  1.3180204465349146  1.3022860520472299 17.8250159142190157
  1.3231863675283200  3.8793758287883504 16.0173027462489586
