Se Cd I 
 1.0000000000000000
     4.3885109597725478   -0.0000000000000000    0.0000000000000000
    -2.1942554786145632    3.8017850545294660    0.0000000000000000
     0.0000000000000000    0.0000000000000000   40.9080765184176229
 Se  Cd  I  
   2   3   2
Cartesian
  1.3502032670483621  0.8135972028103702 15.0000000000000000
  1.3505552194960608  3.3471897577405643 18.5885916162562417
  1.3498098802985572  0.8137998807446583 17.8903171033845112
  1.3509505296718280  3.3469864981918320 15.6980628372997124
  0.7402518986114044  0.0496074658689857 24.1875600966397144
  2.9345073789215812  1.3168691507121413 25.9080765184176229
  0.7402518994592117  2.5841308355552970 22.4670436748618023
