Mo S  W  S 
 1.0000000000000000
     3.1850062071730059    0.0000000000000000    0.0000000000000000
    -1.5925031035865029    2.7582962866229455    0.0000000000000000
     0.0000000000000000    0.0000000000000000   40.2732806448473397
 Mo  S   W   S  
   1   2   1   2
Cartesian
  0.3070491418255826  1.2896550227302628 16.5635563231757601
  1.8995522454120857  2.2090871182712446 18.1271126463515202
  1.8995522454120857  2.2090871182712446 15.0000000000000000
  0.3246127568204935  1.2655998734591596 23.7004832068611577
  1.9171158604069962  2.1850319690001414 25.2732806448473468
  1.9171158604069962  2.1850319690001414 22.1276857688749757
