Zr Br Hf S 
 1.0000000000000000
     3.6072354968698375   -0.0000000000000000    0.0000000000000000
    -1.8036177484349187    3.1239575777222610    0.0000000000000000
    -0.0000000000000000    0.0000000000000000   40.4167410490806134
 Zr  Br  Hf  S  
   1   2   1   2
Cartesian
 -0.5126821895161455  1.2627370420829604 16.8261924305408073
  1.2909355589187732  2.3040562346570477 18.6523848530272502
  1.2909355589187732  2.3040562346570477 15.0000000000000000
  0.5186687612539483  0.8857332280558787 23.9686367470894197
  2.3222865096888667  1.9270524206299657 25.4167410490806134
  0.5186687612539483  2.9683716132040527 22.5205324450985636
