Ti Te Hg F 
 1.0000000000000000
     3.6336651140522322   -0.0000000000000000    0.0000000000000000
    -1.8168325570261143    3.1468462976145108    0.0000000000000000
    -0.0000000000000002   -0.0000000000000000  -41.3706731528541454
 Ti  Te  Hg  F  
   2   2   1   2
Cartesian
  2.0463307169228857  1.3511668110853519 -19.0942779024546638
  2.0463307169228857  1.3511668110853519 -16.7151615237054116
  0.2294981598967700  2.4001155769568552 -20.8094364375122716
  0.2294981598967701  2.4001155769568552 -15.0000000000000053
  0.1887105296324329  0.5988073802357499 -25.3420010004939549
  2.0055430866585398  1.6477561461072532 -24.3133288481337395
  0.1887105296324313  2.6967049119787565 -26.3706731528541383
