Al S  Zr S 
 1.0000000000000000
     3.6331385076404974    0.0000000000000000    0.0000000000000000
    -1.8165692538202487    3.1463902430841539    0.0000000000000000
    -0.0000000000000000    0.0000000000000000   41.6077005147919294
 Al  S   Zr  S  
   2   2   1   2
Cartesian
  2.0492055436410892  1.4399084379596654 16.0691806254429004
  2.0492055436410892  1.4399084379596654 18.6673481735629530
  0.2326362898208404  2.4887051856543834 15.0000000000000000
  0.2326362898208404  2.4887051856543834 19.7365287990058356
 -0.0931734725262138  0.6299171425619077 25.1618180720478684
  1.7233957812940344  1.6787138902566254 26.6077005147919294
 -0.0931734725262139  2.7275106379513434 23.7159356293037433
