Se Zn Mg I 
 1.0000000000000000
     4.1413412968261838    0.0000000000000000    0.0000000000000000
    -2.0706706472491501    3.5866700439910124    0.0000000000000000
     0.0000000000000000    0.0000000000000000   40.6394919352339272
 Se  Zn  Mg  I  
   2   2   1   2
Cartesian
  1.2580141758773560  0.8780021433346968 15.0000000000000000
  1.2581211735301416  3.2689799662726564 18.4133035906909832
  1.2579119875599996  0.8780579187206790 17.6556971816099200
  1.2582233319705678  3.2689241888711447 15.7579816020882397
  0.7233909618442469  0.0514294222371952 23.9651742785660602
  2.7940616106453184  1.2469861035675334 25.6394919352339272
  0.7233909626202082  2.4425427848978716 22.2908566218981967
