Cr Te W  Te
 1.0000000000000000
     3.5101220490558793    0.0000000000000000    0.0000000000000000
    -1.7550610245279397    3.0398548648662791    0.0000000000000000
     0.0000000000000000    0.0000000000000000   41.0191420982626411
 Cr  Te  W   Te 
   1   2   1   2
Cartesian
  0.2172836104781033  0.9723139169425328 16.7062363127964844
  1.9723446350060430  1.9855988718979589 18.4124726255929652
  1.9723446350060430  1.9855988718979589 15.0000000000000000
  0.1782110798360814  1.3356021381051439 24.2071798850291735
  1.9332721043640213  2.3488870930605703 26.0191420982626411
  1.9332721043640213  2.3488870930605703 22.3952176717957094
