Pb Se Sb Se Sb
 1.0000000000000000
     4.8469444357549216    0.0000000000000000    0.0000000000000000
    -2.4234722178774608    4.1976724747053682    0.0000000000000000
    -0.0000000000000000    0.0000000000000000   39.9093878845248540
 Pb  Se  Sb  Se  Sb 
   1   2   1   2   1
Cartesian
  0.3565446366451943  0.9350570125334643 16.2130084440828348
  2.7800168545226551  2.3342811707685871 17.4260168881656696
  2.7800168545226551  2.3342811707685871 15.0000000000000000
  0.4842601063392698  3.8269085716343580 24.6141023477860230
  2.9120450344834019  2.4325092920335356 21.4224377650823428
  0.4834396523854233  1.0287803762976271 24.9093878845248540
  0.4877206319656120  3.8318787323222265 21.7176305503987095
