I  Pt S  Ti
 1.0000000000000000
     3.9403113820794529    0.0000237985287992    0.0000000000000000
    -1.9701350712167911    3.4132882827480575    0.0000000000000000
    -0.0000000000000002   -0.0000000000000000   41.0861919600737124
 I   Pt  S   Ti 
   2   2   2   2
Cartesian
 -0.7469260723590929  1.3418217805030719 15.0000000000000000
  3.1932322326268698  1.3420156769270335 19.3964869774338879
  1.2229968071954356  0.2040846829192017 17.9075952834741159
  1.2230437492440074  2.4795831365989818 16.4880841189940028
  1.2734654591920058  0.7890951970347975 22.8614435807325513
  1.2736915442010404  3.0640287528965766 26.0861919600737124
  1.2733965393822726  0.7891029585692222 25.3428903264381624
  1.2737604915521761  3.0640209949234016 23.6047864994137697
