In S  Zn Br
 1.0000000000000000
     3.8563208556891411    0.0000000000000000    0.0000000000000000
    -1.9281604278445710    3.3396718261705400    0.0000000000000000
     0.0000000000000000    0.0000000000000000   42.1211943661470585
 In  S   Zn  Br 
   2   2   1   2
Cartesian
  2.1458519412029760  1.4546922826134439 16.1777227309346578
  2.1458519412029760  1.4546922826134439 18.9966802391880627
  0.2176915133584052  2.5679162246702902 15.0000000000000000
  0.2176915133584052  2.5679162246702902 20.1744029701158176
  0.0082084403253875  0.6565641969553223 25.6385957608154378
  1.9363688681699567  1.7697881390121688 27.1211943661470585
  0.0082084403253875  2.8830120810690150 24.1559971554838349
