Cr Te Al S 
 1.0000000000000000
     3.5270865439043515    0.0000000000000000    0.0000000000000000
    -1.7635432719521758    3.0545465483674259    0.0000000000000000
     0.0000000000000000    0.0000000000000000   41.9970295179204811
 Cr  Te  Al  S  
   1   2   2   2
Cartesian
 -0.4036727851213536  1.2617003110247191 16.7062363127964844
  1.3598704868308218  2.2798824938138611 18.4124726255929652
  1.3598704868308218  2.2798824938138611 15.0000000000000000
  2.0295730213031060  1.2881500048610608 23.3296813443575530
  2.0295730213031060  1.2881500048610608 25.9278488924776056
  0.2660297493509305  2.3063321876502028 22.2605007189146527
  0.2660297493509305  2.3063321876502028 26.9970295179204882
