Cl Cd Bi O 
 1.0000000000000000
     3.9541963577388661    0.0012519794577290    0.0000000000000000
    -1.9760049967664548    3.4314253968650599    0.0000000000000000
     0.0000000000000029    0.0000000000000000   36.1515033427267554
 Cl  Cd  Bi  O  
   2   2   2   2
Cartesian
  1.3897658809419944 -0.2569237266583940 14.9999999999999982
  1.4021979878098481  4.2957304287093612 20.5111542448488713
  1.4024993952646037  2.0082077710764055 19.0920396605243425
  1.3895227126538678  2.0305972207272274 16.4189511839095843
  2.4808088426894570  1.4998080194645658 17.8709380955352088
  2.4808088426894574  1.4998080194645658 21.0235542989779880
  0.5040750578543497  2.6431991586003423 17.7429889499852713
  0.5040750578543499  2.6431991586003423 21.1515033427267554
