Ge Se Hg F 
 1.0000000000000000
     3.6626764285812814    0.0000000000000000    0.0000000000000000
    -1.8313382142906387    3.1719708329938476    0.0000000000000000
     0.0000000000000001    0.0000000000000000   37.1069074516042434
 Ge  Se  Hg  F  
   1   1   1   2
Cartesian
  2.0476320995479078  1.4393343398582421 16.4473597337136113
  0.2162938852572684  2.4966579508561919 15.0000000000000000
  0.5944548960987717  0.2811506822559124 21.0782352992440281
  2.4257931103894030  1.3384742932538614 22.1069074516042434
  0.5944548960987701  2.3957979042518103 20.0495631468838411
