Hg Cl Pb S 
 1.0000000000000000
     3.9209973819876214    0.0000000000000000    0.0000000000000000
    -1.9604986909938109    3.3956833409735561    0.0000000000000000
     0.0000000000000000    0.0000000000000000   39.3106645817078260
 Hg  Cl  Pb  S  
   1   2   1   2
Cartesian
  0.5375111840514244  0.7006071440191534 16.4596042885843232
  2.4980098750452373  1.8325015910103390 17.9192085771686678
  0.5375111840514250  2.9643960380015248 15.0000000000000000
  0.5864651903380380  0.7561663452520540 22.7686742236701924
  2.5469638813318491  1.8880607922432393 24.3106645817078260
  0.5864651903380379  3.0199552392344247 21.2266838656325589
