Br Cd Zn I 
 1.0000000000000000
     4.1020614016496104    0.0014024937248978    0.0000000000000000
    -2.0498060953229742    3.5583072020506314    0.0000000000000000
     0.0000000000000033    0.0000000000000000   42.5925779447541046
 Br  Cd  Zn  I  
   2   2   1   2
Cartesian
  1.1576220753092545 -0.3547258545724981 15.0000000000000018
  1.1709118407519421  4.3661150671826716 20.7228492099078068
  1.1707285507062564  1.9940840703596572 19.2010592037222949
  1.1573918386113264  2.0176395102429558 16.5215258816321011
  0.7159517985358583  0.3411697730461676 25.9651721762417260
  2.7673907011946071  1.5282071695463100 27.5925779447541117
  0.7167682022037452  2.7138420723215551 24.3377664077293403
