Ni S  Zr O 
 1.0000000000000000
     3.3112302459396625    0.0000000000000000    0.0000000000000000
    -1.6556151229698313    2.8676095107631427    0.0000000000000000
     0.0000000000000000    0.0000000000000000   37.8344449767308575
 Ni  S   Zr  O  
   1   2   1   2
Cartesian
  0.5137350936159267  0.6899180052500794 16.1754339282252566
  2.1693502165857579  1.6457878421711269 17.3508678564505132
  0.5137350936159267  2.6016576790921744 15.0000000000000000
  0.6168994882762562  0.6853861668641088 21.8731130042992810
  2.2725146112460872  1.6412560037851565 22.8344449767308575
  0.6168994882762562  2.5971258407062043 20.9117810318677044
