Pb Se I  Cu
 1.0000000000000000
     4.1273858520126856    0.0000000000000000    0.0000000000000000
    -2.0636929248133615    3.5744209969971519    0.0000000000000000
     0.0000000000000000    0.0000000000000000  -38.9737982899751856
 Pb  Se  I   Cu 
   1   1   2   2
Cartesian
  2.5675584226747517  1.9763733591055395 -22.4255562432334834
  0.5038654970660699  3.1678470247712562 -23.9737982899751856
  1.3213589345850134  0.6716721850553177 -18.8558029306399995
  1.3213589147434053  3.0546195283014890 -15.0000000000000000
  1.3213589345850136  0.6716721850553180 -16.2345038988799999
  1.3213589147434051  3.0546195283014885 -17.6187037761600038
