Pb S  Cl Cd
 1.0000000000000000
     3.9405910365051779    0.0012519794577290    0.0000000000000000
    -1.9692023361496109    3.4196428430500383    0.0000000000000000
     0.0000000000000032    0.0000000000000000   40.1047240467871973
 Pb  S   Cl  Cd 
   1   1   2   2
Cartesian
  2.7091105275377050  1.5784438034928259 16.4391638847389387
  0.7391794033194427  2.7179074246902619 15.0000000000000000
  1.0233218776517805 -0.2121890637085527 19.5935698019383295
  1.0357161984600409  4.3248354155340287 25.1047240467871973
  1.0360140618506906  2.0451660385263457 23.6856094624626721
  1.0230820530406290  2.0674786089865407 21.0125209858479138
