Ga Se Zn Br
 1.0000000000000000
     3.8112714301378978   -0.0000000000000000    0.0000000000000000
    -1.9056357150689491    3.3006578792172681    0.0000000000000000
     0.0000000000000000    0.0000000000000000   41.7753128671151046
 Ga  Se  Zn  Br 
   2   2   1   2
Cartesian
  2.0978036484407547  1.4831671592305682 16.1770728543176254
  2.0978036484407547  1.4831671592305682 18.6526280641098126
  0.1921679333718057  2.5833864523029906 14.9999999999999982
  0.1921679333718057  2.5833864523029906 19.8297009184262052
 -0.0383925801924470  0.7110469708966514 25.2927142617834804
  1.8672431348765004  1.8112662639690738 26.7753128671151046
 -0.0383925801924467  2.9114855570414964 23.8101156564518845
