F  Pd Ga N 
 1.0000000000000000
     3.2814360453829323   -0.0000000000000000    0.0000000000000000
    -1.6407180217505517    2.8435079598772006    0.0000000000000000
     0.0000000000000011    0.0000000000000000  -37.8276541985530770
 F   Pd  Ga  N  
   2   2   1   1
Cartesian
 -0.5139995741435851  1.5001828038766076 -18.8818537777082369
  2.7657724917506270  1.5041339188952472 -15.0000000000000018
  1.1257657961209364  0.5550486380458477 -16.1326080480190868
  1.1259260192631382  2.4495403208812832 -17.7492963114458320
 -0.1094162970643014  2.0207151399706711 -22.8276541985530841
  1.5313017253135268  1.0728791533449376 -22.8276541985530841
