Ti Cl W  S 
 1.0000000000000000
     3.2324868709721293    0.0000000000000000    0.0000000000000000
    -1.6162434354860646    2.7994157476615347    0.0000000000000000
     0.0000000000000000    0.0000000000000000   40.3031580626840977
 Ti  Cl  W   S  
   1   2   1   2
Cartesian
  0.1959672573020888  1.5496105828351738 16.5858594364141574
  1.8122106927881529  2.4827491653890186 18.1717191271673677
  1.8122106927881529  2.4827491653890186 15.0000000000000000
  0.4571503709731976  1.3497933871077903 23.7303606246979051
  2.0733938064592619  2.2829319696616350 25.3031580626840906
  2.0733938064592619  2.2829319696616350 22.1575631867117195
