Ge Se Zr S 
 1.0000000000000000
     3.6742438700153732    0.0000000000000000    0.0000000000000000
    -1.8371219350076866    3.1819885311325620    0.0000000000000000
    -0.0000000000000000    0.0000000000000000   37.9016449783206824
 Ge  Se  Zr  S  
   1   1   1   2
Cartesian
  2.1076979226976018  0.9902145686890096 16.4473597337136113
  0.2705759876899150  2.0508774123998639 15.0000000000000000
  0.9167750429962827  0.2421589981597642 21.4557625355766177
  2.7538969780039686  1.3028218418706181 22.9016449783206824
  0.9167750429962824  2.3634846855814722 20.0098800928324927
