Pb S  Pt Te
 1.0000000000000000
     3.9824669852474317   -0.0000000000000000    0.0000000000000000
    -1.9912334926237159    3.4489175789571029    0.0000000000000000
    -0.0000000000000000    0.0000000000000000   37.7639175436209626
 Pb  S   Pt  Te 
   1   1   1   2
Cartesian
  2.1811366081144965  1.5488818469843908 16.4391638847389423
  0.1899031154907808  2.6985210399700921 15.0000000000000000
  0.6313163433882838  0.2451686578101342 21.3767033140674521
  2.6225498360119994  1.3948078507958350 22.7639175436209591
  0.6313163433882838  2.5444470437815356 19.9894890854704208
