Sn O  Zn F 
 1.0000000000000000
     3.1821735841271090    0.0000000000000000    0.0000000000000000
    -1.5910867920635545    2.7558431631058542    0.0000000000000000
     0.0000000000000000    0.0000000000000000   37.6396803334603121
 Sn  O   Zn  F  
   1   2   1   2
Cartesian
  0.4616691034325429  0.6723674021864516 16.0089623246724138
  2.0527558954960976  1.5909817898884029 17.0179246493448275
  0.4616691034325429  2.5095961775903546 15.0000000000000000
  0.6183515235780848  0.6302539864307489 21.6439134291158268
  2.2094383156416386  1.5488683741327001 22.6396803334603121
  0.6183515235780849  2.4674827618346509 20.6481465247713203
