I  Ag Te Cd
 1.0000000000000000
     4.6218735872323347    0.0000000000000000    0.0000000000000000
    -2.3109367909760792    4.0059812548192282    0.0000000000000000
     0.0000000000000000    0.0000000000000000   41.1910120659467864
 I   Ag  Te  Cd 
   2   2   2   2
Cartesian
  1.4045965403970251  0.9504059904728277 15.0000000000000000
  1.4043326634991677  3.6196579388768053 19.1467191956345957
  1.4028416548713318  0.9513977937737406 17.9021344705961027
  1.4061030598596245  3.6186592798403674 16.2436090111161739
  1.4711214230534526  0.9621604131816855 22.2042104779806380
  1.4712296828936142  3.6322832514574994 26.1910120659467935
  1.4707438502042269  0.9624023434812610 25.2480696874323911
  1.4716087348489315  3.6320409138267591 23.1467029969782558
