Al S  Pt S 
 1.0000000000000000
     3.5788186780312650    0.0000000000000000    0.0000000000000000
    -1.7894093390156325    3.0993478907133172    0.0000000000000000
     0.0000000000000000    0.0000000000000000   41.1947419673473192
 Al  S   Pt  S  
   2   2   1   2
Cartesian
  2.0053345636952224  1.4682570590286745 16.0691806254429004
  2.0053345636952224  1.4682570590286745 18.6673481735629565
  0.2159252246795904  2.5013730225997803 15.0000000000000000
  0.2159252246795904  2.5013730225997803 19.7365287990058356
 -0.0077249801234027  0.4783351243223402 24.9627145978468512
  1.7816843588922295  1.5114510878934455 26.1947419673473192
 -0.0077249801234028  2.5445670514645511 23.7306872283463797
