Hg F  Ni Se
 1.0000000000000000
     3.6004423002633197   -0.0000000000000000    0.0000000000000000
    -1.8002211501316578    3.1180744968881120    0.0000000000000000
     0.0000000000000002    0.0000000000000000   38.0069226120490953
 Hg  F   Ni  Se 
   1   2   1   2
Cartesian
  0.5604604889463172  0.7808690180142366 16.0286721523601869
  2.3606816390779675  1.8202271836436070 17.0573443047204023
  0.5604604889463157  2.8595853492729773 15.0000000000000036
  0.5587064956143613  0.6285396980280419 21.7615816680322851
  2.3589276457460215  1.6678978636574124 23.0069226120490953
  0.5587064956143624  2.7072560292867833 20.5162407245541303
