Pb I  Sr I 
 1.0000000000000000
     4.5690054905312785   -0.0000000000000000    0.0000000000000000
    -2.2845027452656392    3.9568748248306682    0.0000000000000000
     0.0000000000000000    0.0000000000000000   42.0648432966720023
 Pb  I   Sr  I  
   1   2   1   2
Cartesian
  0.1727482513617554  1.5509990474036506 17.0310965280492574
  2.4572509966273950  2.8699573223472070 19.0621930560985149
  2.4572509966273950  2.8699573223472070 15.0000000000000000
  0.2315480384326312  1.6884822333330547 25.0619582859928478
  2.5160507836982706  3.0074405082766109 27.0648432966720023
  2.5160507836982706  3.0074405082766109 23.0590732753138461
