Zr Se Hg F 
 1.0000000000000000
     3.6274362000175531   -0.0000000000000000    0.0000000000000000
    -1.8137181000087743    3.1414518998224890    0.0000000000000000
     0.0000000000000002    0.0000000000000000   41.5289243167432502
 Zr  Se  Hg  F  
   2   2   1   2
Cartesian
  2.0436654478902532  1.3604089390425820 22.1700759793106243
  2.0436654478902532  1.3604089390425820 24.9163184879942072
  0.2299473478814781  2.4075595723167447 20.5574698931120317
  0.2299473478814781  2.4075595723167447 26.5289243167432502
  0.1938276777860259  0.5969549689713635 16.0286721523601869
  2.0075457777947934  1.6441056022455260 17.0573443047204023
  0.1938276777860246  2.6912562355196892 15.0000000000000000
