Si F  Zn I 
 1.0000000000000000
     4.0220992440809917    0.0000000000000000    0.0000000000000000
    -2.0110496220381195    3.4832401219152005    0.0000000000000000
    -0.0000000000000013   -0.0000000000000022  -41.0269980817004125
 Si  F   Zn  I  
   2   2   1   2
Cartesian
  1.4776627376310929  0.9421472610598689 -24.3845690462608609
  1.4776627356320966  3.2643073423366684 -23.6807419858405339
  1.4776627376310929  0.9421472610598685 -26.0269980817004090
  1.4776627356320966  3.2643073423366689 -22.0383129503999626
  0.6486779771795356 -0.0567412156495793 -16.6274057685123822
  2.6597275992208238  1.1043388249888213 -15.0000000000000000
  0.6486779771811194  2.2654188656272214 -18.2548115370247714
