Hf I  Hf Te
 1.0000000000000000
     3.8412427925025918   -0.0000000000000000    0.0000000000000000
    -1.9206213962512959    3.3266138404111221    0.0000000000000000
    -0.0000000000000000    0.0000000000000000   41.5918076157854273
 Hf  I   Hf  Te 
   1   2   1   2
Cartesian
  0.1658941153902976  1.4828668258027258 16.9476853944779791
  2.0865155116415934  2.5917381059397662 18.8953707810581477
  2.0865155116415934  2.5917381059397662 15.0000000000000000
  0.2818096081143410  1.4609217329093247 24.7423695237607646
  2.2024310043656365  2.5697930130463655 26.5918076157854273
  2.2024310043656365  2.5697930130463655 22.8929314959036603
