Ti Te Pd Se
 1.0000000000000000
     3.6715254341918024    0.0000000000000000    0.0000000000000000
    -1.8357627170959012    3.1796342966507920    0.0000000000000000
    -0.0000000000000000    0.0000000000000000  -41.9192208214746813
 Ti  Te  Pd  Se 
   2   2   1   2
Cartesian
  2.1248993419130353  1.4445401593180238 -19.0942779024546567
  2.1248993419130353  1.4445401593180238 -16.7151615237054045
  0.2891366248171345  2.5044182582016203 -20.8094364375122609
  0.2891366248171345  2.5044182582016203 -14.9999999999999982
  0.2040125126840204  0.5487917818496113 -25.6061625378456093
  2.0397752297799210  1.6086698807332087 -24.2931040135141991
  0.2040125126840204  2.6685479796168057 -26.9192208214746884
