Pd Se Ti
 1.0000000000000000
     4.0213959665992896    0.0000000000000000    0.0000000000000000
    -2.0106979821453033    3.4835599838918565    0.0000000000000000
     0.0000000000000000    0.0000000000000000   39.3521288393918951
 Pd  Se  Ti 
   1   4   2
Cartesian
 -0.4909661708345855  1.6411806491837611 16.1981932105471387
  1.5197318128498400  2.8023673104810465 17.3963864211044807
  1.5197318128498400  2.8023673104810465 15.0000000000000018
  1.1907065063409186  0.7144019031759301 20.7927973815246148
  1.1908141272435857  3.0361875568114662 24.3521288393918951
  1.1905129652927533  0.7144694696800715 23.4261155175932707
  1.1910077496559837  3.0361200169587415 21.7188820049393740
