Hf S  Pt S 
 1.0000000000000000
     3.6129068877064068   -0.0000000000000000    0.0000000000000000
    -1.8064534438532034    3.1288691462615201    0.0000000000000000
    -0.0000000000000000    0.0000000000000000   38.8071232525783429
 Hf  S   Pt  S  
   1   2   1   2
Cartesian
  0.5351788032651573  0.6582799074652568 16.4481043019908562
  2.3416322471183602  1.7012362895524302 17.8962086039820498
  0.5351788032651573  2.7441926716396039 15.0000000000000000
  0.7251467241159039  0.8409523671461213 22.5750958830778785
  2.5316001679691071  1.8839087492332947 23.8071232525783500
  0.7251467241159038  2.9268651313204677 21.3430685135774105
