I  Hg Se Zr
 1.0000000000000000
     4.3905201165250212   -0.0000000000000011    0.0000000000000000
    -2.1952600557545754    3.8188077430296881    0.0000000000000000
     0.0000000000000034    0.0000000000000000   42.4873327369630047
 I   Hg  Se  Zr 
   2   2   2   2
Cartesian
  1.4231193553933261 -0.2344987423908942 15.0000000000000000
  1.4327333486359672  4.8222603756193712 20.9242317454966695
  1.4411937844674216  2.2800231554397858 19.3041194247390777
  1.4199678929710020  2.3039311523507000 16.6206582552528559
  1.3206883517761998  1.0016486603795207 23.8279056360046866
  1.3209729602167781  3.5469964612037179 27.4873327369630118
  1.3206861850706579  1.0016108673070061 26.6018016604146865
  1.3209751402536858  3.5470342311119669 24.7136563916904706
