Hf Cl Ge S 
 1.0000000000000000
     3.3964690762693723    0.0000000000000000    0.0000000000000000
    -1.6982345381346862    2.9414285032175425    0.0000000000000000
    -0.0000000000000000    0.0000000000000000   40.0786587854435510
 Hf  Cl  Ge  S  
   1   2   1   2
Cartesian
 -0.3316106500139121  0.9751158786176134 16.7299570918342582
  1.3666238881207744  1.9555920463567942 18.4599141836685092
  1.3666238881207744  1.9555920463567942 15.0000000000000000
  0.5780079184567726  0.8572678405592575 23.6816496596070571
  2.2762424565914592  1.8377440082984382 25.0786587854435510
  0.5780079184567726  2.8182201760376189 22.2846405337703715
