Ti Cl Se Ir
 1.0000000000000000
     3.3435749882761741   -0.0000000000000000    0.0000000000000000
    -1.6717874931647003    2.9005348646390940    0.0000000000000000
    -0.0000000000000000    0.0000000000000000   41.5763947307061130
 Ti  Cl  Se  Ir 
   1   2   2   2
Cartesian
 -0.4190869993905684  1.3452139769431066 16.5858594364141609
  1.2527004950719802  2.3120589318228046 18.1717191271673713
  1.2527004950719802  2.3120589318228046 15.0000000000000000
  1.0249970947219151  0.6460837413315932 21.8016509940592016
  1.0247473746021827  2.5789704956441972 26.5763947307061130
  1.0246797703252464  0.6483801408038914 25.1919045249294626
  1.0250647993830466  2.5766721547660798 23.1861720765126194
