Ge Se Br Pt
 1.0000000000000000
     3.7111888327753020    0.0000194514724014    0.0000000000000000
    -1.8555775637632621    3.2140091936115533    0.0000000000000000
     0.0000000000000002    0.0000000000000000  -38.4073394381023974
 Ge  Se  Br  Pt 
   1   1   2   2
Cartesian
  2.1492521901682196  1.8535642102116165 -21.9599797043887861
  0.2936633913220322  2.9248941242580013 -23.4073394381023974
 -0.8468259917312843  1.4943929792799049 -19.3348512724562198
  2.8642373106494450  1.4945525982120185 -15.0000000000000036
  1.0085641411056547  0.4230753346994416 -16.4425489162038829
  1.0086067798907632  2.5657172487793307 -17.8933095280614509
