Sr Cl Ge Cl
 1.0000000000000000
     4.2284005992461218   -0.0000000000000002    0.0000000000000000
    -2.1142002996230609    3.6619023363255634    0.0000000000000000
     0.0000000000000008    0.0000000000000014   35.0518652577974024
 Sr  Cl  Ge  Cl 
   1   2   2   2
Cartesian
 -0.3968248992355395  1.5938954874121349 17.3008752640104362
  1.7173754003875217  2.8145295995206561 18.9568510020299215
  1.7173754003875212  2.8145295995206561 15.6448995259909545
  1.1629447057493860  0.9484609650109269 17.1900136315555052
  1.1629447094426366  3.3897291892279706 17.8618516334689801
  1.1629447057493860  0.9484609650109265 15.0000000000000000
  1.1629447094426366  3.3897291892279706 20.0518652577974024
