Br Cd Ge Cl
 1.0000000000000000
     4.1683338336580222    0.0014024937248976    0.0000000000000000
    -2.0829423113271801    3.6157008117415717    0.0000000000000000
     0.0000000000000044    0.0000000000000017   43.0451151956480302
 Br  Cd  Ge  Cl 
   2   2   2   2
Cartesian
  1.2530941673392098 -0.2341552012351027 15.0000000000000000
  1.2665723974942926  4.5628153156747651 20.7228492099078032
  1.2663993323956311  2.1525322507322660 19.2010592037222949
  1.2528470229442261  2.1764676260963829 16.5215258816320976
  1.2054838417650002  0.8808079862288491 25.1832635694061366
  1.2063002490736736  3.2917426919660895 25.8551015713196115
  1.2054838417650000  0.8808079862288487 22.9932499378506314
  1.2063002490736738  3.2917426919660895 28.0451151956480302
