W  S  Si S 
 1.0000000000000000
     3.2453741960261704   -0.0000000000000001    0.0000000000000000
    -1.6225063572552596    2.8108733620781594    0.0000000000000000
     0.0000000000000012    0.0000000000000021   39.7657100036445144
 W   S   Si  S  
   1   2   1   2
Cartesian
 -0.3985555032170299  1.2518620643438108 16.5727974379861891
  1.2241918417153301  2.1888198517031969 18.1455948759723746
  1.2241918417153301  2.1888198517031969 15.0000000000000036
  2.5341617721737899  0.8592464596839311 23.4400299579231941
  0.9118577717623458  1.7964625677407895 22.1138080501501761
 -0.7111573801388092  2.7337894358392663 24.7657100036445144
