In S  Cd Br
 1.0000000000000000
     3.9883053595658753    0.0000000000000000    0.0000000000000000
    -1.9941526797829379    3.4539737594336772    0.0000000000000000
     0.0000000000000000    0.0000000000000000   42.2943284893940969
 In  S   Cd  Br 
   2   2   1   2
Cartesian
  2.1941910039888382  1.5343011803134345 16.1777227309346578
  2.1941910039888382  1.5343011803134345 18.9966802391880591
  0.2000383242059004  2.6856257667913273 15.0000000000000000
  0.2000383242059004  2.6856257667913273 20.1744029701158176
  0.0432834699733748  0.6606752423505035 25.7277206386781465
  2.0374361497563123  1.8119998288283954 27.2943284893940969
  0.0432834699733749  2.9633244153062877 24.1611127879622067
