Ti I  Pt Se
 1.0000000000000000
     3.7585919807767989    0.0000000000000000    0.0000000000000000
    -1.8792959903883995    3.2550361378131800    0.0000000000000000
     0.0000000000000000    0.0000000000000000   40.0699885297483434
 Ti  I   Pt  Se 
   1   2   1   2
Cartesian
 -0.5390319206484977  1.2997765908516810 16.8143657812576208
  1.3402640697399015  2.3847886367894078 18.6287315661405444
  1.3402640697399015  2.3847886367894078 15.0000000000000036
  0.4561782796137143  0.9944681682618632 23.7601798079405953
  2.3354742700021141  2.0794802141995898 25.0699885297483434
  0.4561782796137141  3.1644922601373171 22.4503710800432117
