Te Cd Tl Te Tl
 1.0000000000000000
     4.5942539557230697   -0.0000000000000000    0.0000000000000000
    -2.2971269765281024    3.9796317466241353    0.0000000000000000
    -0.0000000000000000    0.0000000000000000   43.0688600718653163
 Te  Cd  Tl  Te  Tl 
   2   2   1   2   1
Cartesian
  1.2389795272549764  0.3902648710469851 14.9999999999999982
  1.2390871392899649  3.0428248653817760 18.9868015879661485
  1.2386042107250563  0.3905052100399602 18.0438592094517460
  1.2394639260870579  3.0425841217368736 15.9424925189976125
  0.8554965968587541  3.5865801011452660 26.6897648596344013
  3.1525031093363518  2.2594672318446389 22.4107179513631039
  0.8551233551063083  0.9330896055782248 28.0688600718653163
  0.8549998838683029  3.5871514597008813 23.7898084601957223
