Ge Br Ge Br Hg I 
 1.0000000000000000
     4.3171657162784616   -0.0506467540195987    0.0000000000000001
    -2.1148055406047774    3.7643915555535754    0.0000000000000001
    -0.0000000000000021    0.0000000000000000  -37.0229256805826310
 Ge  Br  Ge  Br  Hg  I  
   1   1   1   1   1   2
Cartesian
  0.7442967523327360  1.0691881707577180 -18.0293486901658611
 -1.4340894337944390 -0.1543523416373182 -14.9999999999999964
 -1.4294724243214911 -0.1520070849370469 -17.3501246890710625
 -3.5729103274175560  1.1170989942083438 -20.3794909095427244
  4.0214078280890080  0.6253504956897710 -20.2796751646728133
  6.1945831254063908  1.8463831781945637 -18.5364246487629991
  4.0505927064453102  3.1180626147189554 -22.0229256805826275
