Hf I  Sn S 
 1.0000000000000000
     3.7625982946661085   -0.0000000000000000    0.0000000000000000
    -1.8812991473330543    3.2585057074168566    0.0000000000000000
    -0.0000000000000000    0.0000000000000000   39.2956015461809187
 Hf  I   Sn  S  
   1   2   1   1
Cartesian
 -0.1010046057463784  1.3157715150025902 22.3479161596007501
  1.7802945415866758  2.4019400841415424 24.2956015461809187
  1.7802945415866758  2.4019400841415424 20.4002307651227710
  2.1416049113725584  1.8201083518826855 16.4598471617338120
  0.2603057640395038  2.9062769210216377 14.9999999999999982
