Ti Te Ti Te
 1.0000000000000000
     3.5937349639651357    0.0000000000000000    0.0000000000000000
    -1.7968674819825678    3.1122657732621617    0.0000000000000000
     0.0000000000000000    0.0000000000000000   45.2932580208898230
 Ti  Te  Ti  Te 
   1   2   3   2
Cartesian
 -0.0329053305868308  2.7748691140939652 19.1373198084122969
  1.7640118722411653  1.7370928321534453 15.0000000000000000
 -0.0331825343465652  0.6999904293157028 20.8817252741117230
 -0.0331336903483520  2.7756809197517853 16.7444052880916523
  1.7995084423494616  1.3999734458496376 26.1989801184351556
  1.7995084423494616  1.3999734458496376 28.5780964971844078
  0.0026409603668936  2.4373953702703579 24.4838215833775514
  0.0026409603668936  2.4373953702703579 30.2932580208898159
