Pb Br I  Zn
 1.0000000000000000
     4.2497477961474015    0.0000000000000035    0.0000000000000000
    -2.1234879296110805    3.6811890365413165    0.0000000000000000
     0.0000000000000013    0.0000000000000022   42.1554145296005771
 Pb  Br  I   Zn 
   1   2   2   2
Cartesian
 -0.5905706993503114  1.6923143652873551 16.8414801415537809
  1.5347651882109294  2.9193773774677965 18.6829602831084429
  1.5347651882109294  2.9193773774677960 14.9999999999999964
  0.4067202573568106  0.7558264030466418 21.8520644961640826
  0.3962649933956865  3.1991362103642143 27.1554145296005771
  2.5201040041842822  1.9694717281118375 25.6894582350595684
  2.5329848433113904  1.9860158923831057 23.3179137322789174
