Al Se Ru Br
 1.0000000000000000
     3.7790608124131149   -0.0000000000000000    0.0000000000000000
    -1.8895304062065577    3.2727626659960163    0.0000000000000000
    -0.0000000000000000    0.0000000000000000   41.5482050577519573
 Al  Se  Ru  Br 
   2   2   1   2
Cartesian
  2.0971277040278289  1.4593982056903343 16.1674793328362725
  2.0971277040278289  1.4593982056903343 18.7553318157724647
  0.2075972978212713  2.5503190943556731 15.0000000000000000
  0.2075972978212713  2.5503190943556731 19.9228111486087727
  0.0809922225551089  0.5828481644821650 25.2313559038023527
  1.9705226287616653  1.6737690531475040 26.5482050577519573
  0.0809922225551088  2.7646899418128430 23.9145067498527482
