Ge F  Se Hf
 1.0000000000000000
     4.2579723695123306   -0.0000000000000000    0.0000000000000000
    -2.1289861835378714    3.6882161147243639    0.0000000000000000
     0.0000000000000013    0.0000000000000022   41.0107789640032081
 Ge  F   Se  Hf 
   2   2   2   2
Cartesian
  1.2919347295740449  0.9990313007313214 16.7809067055787153
  1.2919347341053209  3.4578420438808966 17.3739865908562372
  1.2919347295740449  0.9990313007313210 15.0000000000000036
  1.2919347341053209  3.4578420438808970 19.1548933276439932
  1.6417041228772020  1.0363140790198500 22.3195024344673456
  1.6419677657512810  3.4945537766410197 26.0107789640032081
  1.6417653009777256  1.0362468701910941 25.0881507856549533
  1.6419066626627776  3.4946210378173492 23.2425695398460768
