Se Ir Ni Se
 1.0000000000000000
     3.4749349320758212   -0.0000000000000000    0.0000000000000000
    -1.7374674650645239    3.0142959130092848    0.0000000000000000
    -0.0000000000000000    0.0000000000000000   41.1865896874589197
 Se  Ir  Ni  Se 
   2   2   1   2
Cartesian
  1.0863842340438448  0.6691703164029250 15.0000000000000000
  1.0861247030760783  2.6778662692989141 19.7747437366469150
  1.0860544428369026  0.6715567823021537 18.3902535308702610
  1.0864545986110370  2.6754777858505432 16.3845210824534178
  0.6392852061425951  0.0187395546312055 24.9412487434421095
  2.3767526725049679  1.0235048589676337 26.1865896874589197
  0.6392852067915195  2.0282701633040618 23.6959077999639547
