Cr Se Ga N 
 1.0000000000000000
     3.2393060085261909    0.0000000000000000    0.0000000000000000
    -1.6196530042630954    2.8053212940152523    0.0000000000000000
     0.0000000000000000    0.0000000000000000  -37.0801357760441874
 Cr  Se  Ga  N  
   1   2   1   1
Cartesian
  0.0413902075629513  0.8437200064487809 -16.5737644427049204
  1.6610432118260468  1.7788271044538650 -15.0000000000000000
  1.6610432118260468  1.7788271044538650 -18.1475288854098444
  0.4599968481756213  2.1166325876879424 -22.0801357760441874
  2.0796498524387168  1.1815254896828586 -22.0801357760441874
