Sn S  Ti Te
 1.0000000000000000
     3.6801173932913045    0.0000000000000000    0.0000000000000000
    -1.8400586966456522    3.1870751514992373    0.0000000000000000
    -0.0000000000000000    0.0000000000000000   40.6688148704995101
 Sn  S   Ti  Te 
   1   1   2   2
Cartesian
  1.9471805400771351  1.2548851809774189 16.4598471617338120
  0.1071218434314826  2.3172435648104979 15.0000000000000000
  1.9488303860091258  1.2233883908810919 21.5745369680448498
  1.9488303860091258  1.2233883908810919 23.9536533467941020
  0.1087716893634735  2.2857467747141706 19.8593784329872456
  0.1087716893634736  2.2857467747141706 25.6688148704995101
