Ca I  Pb I 
 1.0000000000000000
     4.4440628190092921    0.0000000000000000    0.0000000000000000
    -2.2220314095046461    3.8486712972759327    0.0000000000000000
     0.0000000000000000    0.0000000000000000   41.9588012271998423
 Ca  I   Pb  I  
   1   2   1   2
Cartesian
  0.1661987632992329  1.5984084455869683 16.9490723290323366
  2.3882301728038788  2.8812988780122790 18.8981446580646484
  2.3882301728038788  2.8812988780122790 15.0000000000000000
  0.2745945045288740  1.6568730268594507 24.9277046991505813
  2.4966259140335199  2.9397634592847615 26.9588012271998423
  2.4966259140335199  2.9397634592847615 22.8966081711013238
