Al Te Al S  Zr
 1.0000000000000000
     4.1638106513454378   -0.0000000000000000    0.0000000000000000
    -2.0819053273115782    3.6063817076263431    0.0000000000000000
    -0.0000000000000000    0.0000000000000000   42.3126167044970103
 Al  Te  Al  S   Zr 
   1   2   1   2   2
Cartesian
  0.6655816511293857  3.2912186161466517 18.8314022027447123
  2.7475315747183435  2.0890954045241905 15.0000000000000000
  0.6655562435788493  0.8869309406590037 20.1000459107870029
  0.6656008484444840  3.2911894352648465 16.2686119692352165
  1.2818585389164823  0.1633534513854007 23.9847549883853901
  1.2821415866836325  2.5671553271972667 27.3126167044970103
  1.2819282227251154  0.1632715489157057 26.6085635911271083
  1.2820718919640570  2.5672372326073685 24.6888461080878585
