Ti I  S  Zn
 1.0000000000000000
     3.8457704905285377    0.0000000000000000    0.0000000000000000
    -1.9228852441439381    3.3307907131447667    0.0000000000000000
    -0.0000000000000000    0.0000000000000000   40.2052564340386027
 Ti  I   S   Zn 
   1   2   2   2
Cartesian
 -0.7069996279042545  1.5742229532453742 16.8143657812576208
  1.2158856177334574  2.6844865242936296 18.6287315661405444
  1.2158856177334574  2.6844865242936296 15.0000000000000018
  1.1141587598511773  0.6282709203282683 22.0845137921355246
  1.1142281304787760  2.8486043967762003 25.2052564340386027
  1.1140342108369388  0.6283184450717755 24.6659738811448719
  1.1143526942413553  2.8485569986973069 22.6239421966148200
