Ti Se Ti Te
 1.0000000000000000
     3.5517395995041561    0.0000000000000000    0.0000000000000000
    -1.7758697997520780    3.0758967207977670    0.0000000000000000
     0.0000000000000000    0.0000000000000000   42.7757624223327255
 Ti  Se  Ti  Te 
   1   2   2   2
Cartesian
 -0.1124751038316293  1.0680665158576563 16.6199398271809464
  1.6633946959204489  2.0933654227902450 18.2398796543619532
  1.6633946959204489  2.0933654227902450 15.0000000000000000
  2.0376744935024202  1.4598271363058699 23.6814845198780652
  2.0376744935024202  1.4598271363058699 26.0606008986273174
  0.2618046937503424  2.4851260432384583 21.9663259848204611
  0.2618046937503424  2.4851260432384583 27.7757624223327255
