Hg Br Zn I 
 1.0000000000000000
     4.1215651174288830    0.0000000000000000    0.0000000000000000
    -2.0607825587144419    3.5693800950452057    0.0000000000000000
     0.0000000000000000    0.0000000000000000   39.8028380071923635
 Hg  Br  Zn  I  
   1   2   1   2
Cartesian
  0.4539820117677973  0.7095547192227424 16.5894075761307960
  2.5147645704822374  1.8993480842378108 18.1788151522615991
  0.4539820117677967  3.0891414492528795 15.0000000000000000
  0.6944966765751642  0.6742749957966604 23.1754322386799814
  2.7552792352896049  1.8640683608117290 24.8028380071923635
  0.6944966765751636  3.0538617258267977 21.5480264701675921
