I  Zn Se Zn
 1.0000000000000000
     4.1334660918741672    0.0000000000000035    0.0000000000000000
    -2.0653470763105211    3.5806494018432895    0.0000000000000000
     0.0000000000000013    0.0000000000000022   41.9579123812220871
 I   Zn  Se  Zn 
   2   2   2   2
Cartesian
  0.3932622840420368  0.9737783014627956 15.0000000000000036
  0.3831182685534333  3.3503570952292097 20.3033500334365016
  2.4488320756604653  2.1542768751865640 18.8373937388954928
  2.4613606393889369  2.1703691897387043 16.4658492361148348
  0.4127287321727426  0.9756867537457362 23.5446087905311003
  0.4137594529590236  3.3626510427710450 26.9579123812220871
  0.4126267597302793  0.9757424355062565 26.2003059721410239
  0.4138613955805919  3.3625953589983784 24.3025903926193436
