S  Ir Ni S 
 1.0000000000000000
     3.3164756528817652    0.0000000000000000    0.0000000000000000
    -1.6582378255042864    2.8724705281032885    0.0000000000000000
    -0.0000000000000000    0.0000000000000000   40.9095368178054883
 S   Ir  Ni  S  
   2   2   1   2
Cartesian
  1.0679969899306827  0.6474125966052887 15.0000000000000000
  1.0678472081215693  2.5625376996086482 19.6502937780201528
  1.0678043910881887  0.6477650200354284 18.3976254675456090
  1.0680400550921327  2.5621850076629635 16.2526844590143256
  0.6319160119337515 -0.0871591771203897 24.7341028895802353
  2.2901538386868325  0.8703309989140398 25.9095368178054883
  0.6319160125581489  1.8278211749484692 23.5586689613549751
