Zr Te Hf S 
 1.0000000000000000
     3.7004317721827675   -0.0000000000000000    0.0000000000000000
    -1.8502158860913838    3.2046679196813468    0.0000000000000000
    -0.0000000000000000    0.0000000000000000  -42.7102074959332185
 Zr  Te  Hf  S  
   2   2   1   2
Cartesian
  2.1032263345486895  1.3779900103672826 -19.4970846171610717
  2.1032263345486895  1.3779900103672826 -16.8181936022182441
  0.2530104484573059  2.4462126502610646 -21.3152780539108946
  0.2530104484573059  2.4462126502610646 -14.9999999999999982
  0.1822142050634764  0.6056686152416009 -26.2621031939423695
  2.0324300911548603  1.6738912551353833 -24.8139988919511758
  0.1822142050634764  2.7421138950291657 -27.7102074959332256
