Cl Pd Mg Cl
 1.0000000000000000
     3.6706327653794713   -0.0000057074165551    0.0000000000000000
    -1.8353213261944368    3.1788351764391223    0.0000000000000000
    -0.0000000000000001    0.0000000000000000   39.2169980963813885
 Cl  Pd  Mg  Cl 
   2   2   1   2
Cartesian
 -0.5301141004570521  2.1126362190553483 20.1567253678284786
  3.1405707034770400  2.1125420069730554 24.2169980963813885
  1.3049848123686725  1.0528078170393802 22.9387944015713288
  1.3049774697538401  3.1720546641863487 21.4329410589043121
  0.6683958238732456  0.0626163387032500 16.3729058647441299
  2.5037105587280810  1.1222242592385876 17.7458117294882669
  0.6683925282034455  2.1818378871904800 15.0000000000000000
