Pt S  Si Se
 1.0000000000000000
     3.5409355661486428   -0.0000000000000001    0.0000000000000000
    -1.7702759163033481    3.0671269761434816    0.0000000000000000
    -0.0000000000000012   -0.0000000000000021  -39.2446472047043358
 Pt  S   Si  Se 
   1   2   1   2
Cartesian
  0.5678101431326436 -0.0144390659399795 -23.0126198352038642
  2.3383418817972896  1.0079365927745143 -21.7805924657033927
  0.5679380543132923  2.0303122514890082 -24.2446472047043358
  0.5850095294361267  0.8669101187385369 -16.4396250289556463
  2.3560706000180018  1.8884641535661890 -17.8792530868155595
  0.5851914169032519  2.9109057276839425 -15.0000000000000036
