Pt Te Sn Se
 1.0000000000000000
     3.9403308331147953    0.0000000000000000    0.0000000000000000
    -1.9701654165573976    3.4124266007925144    0.0000000000000000
     0.0000000000000000    0.0000000000000000   39.2203362573547025
 Pt  Te  Sn  Se 
   1   2   1   2
Cartesian
  0.6548716658139169  0.8054799453940062 16.3872142285970313
  2.6250370823713136  1.9429554789915109 17.7744284581505383
  0.6548716658139169  3.0804310125890155 15.0000000000000000
  0.5764807047731012  0.7537207841902452 22.6274052377805006
  2.5466461213304985  1.8911963177877498 24.2203362573547025
  0.5764807047731012  3.0286718513852544 21.0344742182062348
