Mg Cl Zr S 
 1.0000000000000000
     3.6775987600363824    0.0000000000000000    0.0000000000000000
    -1.8387993800181914    3.1848939511176586    0.0000000000000000
    -0.0000000000000000    0.0000000000000000   39.0887311943735369
 Mg  Cl  Zr  S  
   1   2   1   2
Cartesian
  0.5105681765433434  0.7322661079235652 16.3729058647441299
  2.3493675565615351  1.7938974249627848 17.7458117294882669
  0.5105681765433439  2.8555287420020043 15.0000000000000000
  0.6138887039404162  0.7100751077299350 22.6428487516294723
  2.4526880839586065  1.7717064247691543 24.0887311943735369
  0.6138887039404158  2.8333377418083736 21.1969663088853437
