Cr S  Ga O 
 1.0000000000000000
     3.0902332352895021    0.0000000000000000    0.0000000000000000
    -1.5451166176447511    2.6762204853796829    0.0000000000000000
     0.0000000000000000    0.0000000000000000   40.8231308072845636
 Cr  S   Ga  O  
   1   2   2   2
Cartesian
 -0.3601490681057533  1.0240239687658139 16.4740845698072640
  1.1849675495389975  1.9160974638923747 17.9481691396145280
  1.1849675495389975  1.9160974638923747 15.0000000000000000
  1.6957276186473162  1.1071673476853123 22.5606711637738115
  1.6957276186473162  1.1071673476853123 25.0739568798325259
  0.1506110010025653  1.9992408428118733 21.8114972363217561
  0.1506110010025653  1.9992408428118733 25.8231308072845565
