W  Te Hg F 
 1.0000000000000000
     3.6046065713579329   -0.0000000000000000    0.0000000000000000
    -1.8023032856789643    3.1216808614442924    0.0000000000000000
     0.0000000000000002    0.0000000000000000   39.5594448767809723
 W   Te  Hg  F  
   1   2   1   2
Cartesian
 -0.6056635110321670  1.4310527994648785 16.8119622132334676
  1.1966397746468005  2.4716130866129760 18.6239244264669352
  1.1966397746468005  2.4716130866129760 15.0000000000000000
  0.3990570712418270  0.9640005229862937 23.5307727244207570
  2.2013603569207842  2.0045608101343908 24.5594448767809723
  0.3990570712418257  3.0451210972824878 22.5021005720605700
