Ti Cl Si S 
 1.0000000000000000
     3.2919151173368806   -0.0000000000000001    0.0000000000000000
    -1.6457768179106145    2.8511789822487668    0.0000000000000000
    -0.0000000000000012   -0.0000000000000021  -39.8104131574242857
 Ti  Cl  Si  S  
   1   2   1   2
Cartesian
 -0.4701653335129443  1.3290388462847127 -23.2245537210101176
  1.1758524720747705  2.2794318403676348 -21.6386940302569073
  1.1758524720747705  2.2794318403676348 -24.8104131574242786
  2.7008486069331017  1.0298973767277932 -16.3256800457213131
  1.0552787755312476  1.9805523956152646 -17.6519019534943276
 -0.5910124058690202  2.9313197627525707 -14.9999999999999929
