Mg Br Pb Se
 1.0000000000000000
     3.9413703762694032   -0.0000000000000000    0.0000000000000000
    -1.9706851881347016    3.4133268715727350    0.0000000000000000
     0.0000000000000000    0.0000000000000000   39.6843099443198781
 Mg  Br  Pb  Se 
   1   2   1   2
Cartesian
  0.5554151991161039  0.7725709596730628 16.5070256484157554
  2.5261003872508034  1.9103465835306424 18.0140512968315178
  0.5554151991161038  3.0481222073882219 14.9999999999999964
  0.5955934230386926  0.7177578168437029 23.0152107878194272
  2.5662786111733942  1.8555334407012813 24.6843099443198781
  0.5955934230386923  2.9933090645588600 21.3461116313189692
