Cd Br Hg Cl
 1.0000000000000000
     4.0280355572266942    0.0000000000000000    0.0000000000000000
    -2.0140177786133480    3.4883811199053238    0.0000000000000000
     0.0000000000000000    0.0000000000000000   39.2784149708860966
 Cd  Br  Hg  Cl 
   1   2   1   2
Cartesian
  0.6356582280802573  0.7425725137511370 16.5666078507159398
  2.6496760066936043  1.9053662203862445 18.1332157014318902
  0.6356582280802570  3.0681599270213518 15.0000000000000000
  0.6593695182762245  0.8577982537615257 22.8188106823017520
  2.6733872968895742  2.0205919603966342 24.2784149708860966
  0.6593695182762247  3.1833856670317422 21.3592063937174288
