Zr Te Pb S 
 1.0000000000000000
     3.9358177433970356   -0.0000000000000000    0.0000000000000000
    -1.9679088716985178    3.4085181504473758    0.0000000000000000
     0.0000000000000000    0.0000000000000000  -39.0969284222054085
 Zr  Te  Pb  S  
   1   2   1   1
Cartesian
 -0.1085499441400273  1.3666247723331744 -16.8615645620743848
  1.8593589275584905  2.5027974891489659 -14.9999999999999964
  1.8593589275584905  2.5027974891489659 -18.7231291241485955
  2.2248335689832173  1.8793807716873812 -22.6577645374664698
  0.2569246972847001  3.0155534885031736 -24.0969284222054085
