I  Cu Se Hf
 1.0000000000000000
     4.2213018401089588   -0.0000000000000000    0.0000000000000000
    -2.1106509176432047    3.6564585026238117    0.0000000000000000
     0.0000000000000000    0.0000000000000000   40.8130221679942409
 I   Cu  Se  Hf 
   2   2   2   2
Cartesian
  1.3139662374614849  0.9636855434481767 14.9999999999999964
  1.3139662179624922  3.4013245573855793 18.8558029306399959
  1.3139662374614853  0.9636855434481770 17.6212990317599960
  1.3139662179624922  3.4013245573855788 16.2370991544799921
  1.5760369274070609  1.1066060229691870 22.1217456384583855
  1.5762983005368849  3.5436788962126946 25.8130221679942480
  1.5760975786292410  1.1065393928461920 24.8903939896459931
  1.5762377236807061  3.5437455782325213 23.0448127438371202
