Sn S  Al Se
 1.0000000000000000
     3.7648813175215792   -0.0000000000000000    0.0000000000000000
    -1.8824406587607896    3.2604828632071143    0.0000000000000000
     0.0000000000000000    0.0000000000000000  -40.0537806221405219
 Sn  S   Al  Se 
   1   1   2   2
Cartesian
  1.7392887397393610  1.8377163464293682 -23.5939334604067099
 -0.1431519190214288  2.9245439674984057 -25.0537806221405219
  2.1451884774398282  1.3370772423274677 -18.7553318157725037
  2.1451884774398282  1.3370772423274677 -16.1674793328363080
  0.2627478186790388  2.4239048633965061 -19.9228111486087727
  0.2627478186790388  2.4239048633965061 -15.0000000000000000
