S  Ir Ga N 
 1.0000000000000000
     3.2738765332786959    0.0000000000000000    0.0000000000000000
    -1.6369382657027518    2.8355786083481789    0.0000000000000000
    -0.0000000000000000    0.0000000000000000   38.5463076948272700
 S   Ir  Ga  N  
   2   2   1   1
Cartesian
  1.2739039709391728  1.0245034034915621 18.8960139168071137
  1.2737561130397965  2.9150320342492524 23.5463076948272700
  1.2737138459701489  1.0248513006517967 22.2936393843527227
  1.2739464829497607  2.9146838720220911 20.1486983758214429
  0.5203024091162834  1.7794264719596113 15.0000000000000000
  2.1572406754434326  0.8342336025102184 15.0000000000000000
