Pb S  Si F 
 1.0000000000000000
     3.9467084898490059   -0.0000000000000000    0.0000000000000000
    -1.9733542449221262    3.4179498135398312    0.0000000000000000
     0.0000000000000012    0.0000000000000021   39.2871900161104151
 Pb  S   Si  F  
   1   1   2   2
Cartesian
  2.2751084210440258  1.3373647371010262 16.4391638847389387
  0.3017541761203153  2.4766813416143032 15.0000000000000000
  1.3613338639179768  0.8177641368267098 21.9409339202495204
  1.3613338619564799  3.0963973458532639 22.6447609806698509
  1.3613338639179768  0.8177641368267093 20.2985048848099723
  1.3613338619564799  3.0963973458532639 24.2871900161104151
