Br Ag Se Zr
 1.0000000000000000
     4.3797606184629636   -0.0000000000000000    0.0000000000000000
    -2.1898803067296928    3.7960183532268768    0.0000000000000000
    -0.0000000000000000    0.0000000000000000   40.6131696061291620
 Br  Ag  Se  Zr 
   2   2   2   2
Cartesian
  1.3048198141479754  0.9976687794891075 15.0000000000000000
  1.3076326644660075  3.5257211956582637 18.8414998721338058
  1.3036974998571453  0.9984422101643812 17.8250159142190121
  1.3087611303661679  3.5249384972948206 16.0173027462489586
  1.4320676387277700  1.0077635192064542 21.9537425051708368
  1.4323515497011041  3.5379215207215386 25.6131696061291620
  1.4320654773320007  1.0077259516705783 24.7276385295808367
  1.4323537243955693  3.5379590652313855 22.8394932608566208
