Al S  Hg F 
 1.0000000000000000
     3.6215710662064051   -0.0000000000000000    0.0000000000000000
    -1.8107855331032006    3.1363725449454396    0.0000000000000000
     0.0000000000000002    0.0000000000000000   40.7209796940216648
 Al  S   Hg  F  
   2   2   1   2
Cartesian
  1.5542139956734751  1.5079819361274731 16.0691806254428968
  1.5542139956734751  1.5079819361274731 18.6673481735629530
 -0.2565715374297267  2.5534394511092868 14.9999999999999964
 -0.2565715374297266  2.5534394511092868 19.7365287990058320
 -0.4404440884518741  1.1985117022069993 24.6923075416614495
  1.3703414446513191  2.2439692171888121 25.7209796940216648
 -0.4404440884518756  3.2894267321706248 23.6636353893012625
