Te Cd I  Au
 1.0000000000000000
     4.7305016041543988   -0.0000000000000000    0.0000000000000000
    -2.3652508007437660    4.0978599011678121    0.0000000000000000
    -0.0000000000000000    0.0000000000000000   37.5641619850371811
 Te  Cd  I   Au 
   2   2   1   1
Cartesian
  1.2795510067706000  1.4070722074623907 14.9999999999999964
  1.2796618101323542  4.1384352903524526 18.9868015879661485
  1.2791645598166494  1.4073196865219382 18.0438592094517460
  1.2800497709558658  4.1381873946194503 15.9424925189976125
 -0.3430624976261891  1.1430928437465611 22.5641619850371811
  2.0221883048955571  2.5092567271389794 22.5641619850371811
