Ge Cl Te Zn
 1.0000000000000000
     4.2808934164383796   -0.0000000000000002    0.0000000000000000
    -2.1404467069826940    3.7078879835084320    0.0000000000000000
     0.0000000000000010    0.0000000000000017   41.8739633065237484
 Ge  Cl  Te  Zn 
   2   2   2   2
Cartesian
  1.2899375594664713  0.9412321565796421 17.1900136315555088
  1.2899375640299016  3.4131574789185986 17.8618516334689836
  1.2899375594664713  0.9412321565796417 15.0000000000000036
  1.2899375640299018  3.4131574789185986 20.0518652577974024
  1.1894366378961740  0.8408637342766268 23.1142159403763898
  1.1895426062012182  3.3125130262833493 26.8739633065237484
  1.1893038919715184  0.8409492656504571 25.9251744353826581
  1.1896751238781467  3.3124271348867347 24.0633561473813202
