W  O  Ni O 
 1.0000000000000000
     2.8368627490869587    0.0000000000000000    0.0000000000000000
    -1.4184313745434793    2.4567952077590656    0.0000000000000000
     0.0000000000000000    0.0000000000000000   38.3444641930065018
 W   O   Ni  O  
   1   2   1   2
Cartesian
 -0.6869697728371837  1.2613723688943754 16.2371370639881860
  0.7314616017062956  2.0803041048140640 17.4742741279763685
  0.7314616017062956  2.0803041048140640 15.0000000000000000
  0.4447463312610482  0.8212054691353771 22.3950535392653940
  1.8631777058045276  1.6401372050550656 23.3444641930065018
  0.4447463312610481  2.4590689409747539 21.4456428855242862
