Tl Te Sr Cl
 1.0000000000000000
     4.4869199720120729    0.0000000000000000    0.0000000000000000
    -2.2434599860060369    3.8857866805102175    0.0000000000000000
     0.0000000000000000    0.0000000000000000  -41.6470848447460753
 Tl  Te  Sr  Cl 
   2   2   1   2
Cartesian
  2.5423687371205297  1.6625134341954348 -19.2838466837136124
  2.5423687371205297  1.6625134341954348 -16.3836225478163620
  0.2989087511144931  2.9577756610321737 -20.6674692707617105
  0.2989087511144931  2.9577756610321737 -14.9999999999999964
  0.2599898751531802  0.6707667017186230 -25.2507680206758280
  2.5034498611592171  1.9660289285553632 -23.8544511966055772
  0.2599898751531802  3.2612911553921031 -26.6470848447460753
