Tl S  Mg I 
 1.0000000000000000
     4.1324106746087361   -0.0000000000000000    0.0000000000000000
    -2.0662053373043685    3.5787726230811581    0.0000000000000000
     0.0000000000000000    0.0000000000000000   42.5937235425449572
 Tl  S   Mg  I  
   2   2   1   2
Cartesian
  2.1107033267527462  1.5828470139814019 16.1978423164646763
  2.1107033267527462  1.5828470139814019 19.0837598082548148
  0.0444979894483773  2.7757712216751211 15.0000000000000000
  0.0444979894483772  2.7757712216751211 20.2816021247199672
 -0.1719360873210171  0.8868362476496278 25.9194058858770937
  1.8942692499833498  2.0797604553433477 27.5937235425449572
 -0.1719360873210174  3.2726846630370678 24.2450882292092267
