Pb S  Cd Br
 1.0000000000000000
     4.0055947056460850   -0.0000000000000000    0.0000000000000000
    -2.0027973528230429    3.4689467723539602    0.0000000000000000
    -0.0000000000000000    0.0000000000000000   38.1307230754234325
 Pb  S   Cd  Br 
   1   1   1   2
Cartesian
  2.2120165640570666  1.2759525377704413 16.4391638847389387
  0.2092192112340243  2.4322681285550947 14.9999999999999982
  0.8188215484322311  0.1470229822136366 21.5641152247074857
  2.8216189012552735  1.3033385729982896 23.1307230754234361
  0.8188215484322310  2.4596541637829423 19.9975073739915459
