Hg F  Mg Cl
 1.0000000000000000
     3.6660313186022906   -0.0000000000000000    0.0000000000000000
    -1.8330156593011435    3.1748762529789443    0.0000000000000000
     0.0000000000000002    0.0000000000000000   38.2483697466034371
 Hg  F   Mg  Cl 
   1   2   1   2
Cartesian
  0.5314807795257741  0.7819398755586544 16.0286721523601834
  2.3644964388269099  1.8402319598849688 17.0573443047203988
  0.5314807795257726  2.8985240442112832 15.0000000000000000
  0.6075468549166371  0.7444635814247837 21.8754638818593001
  2.4405625142177829  1.8027556657510986 23.2483697466034371
  0.6075468549166390  2.8610477500774136 20.5025580171151702
