Br Cd Ge Br Ge Br
 1.0000000000000000
     4.1757252876139255   -0.0492442602947010    0.0000000000000001
    -2.0428607207706784    3.6477183715463939    0.0000000000000001
    -0.0000000000000057    0.0000000000000000  -42.6387045176372865
 Br  Cd  Ge  Br  Ge  Br 
   2   2   1   1   1   1
Cartesian
  2.9314177260201171 -2.3125801534534682 -27.6387045176372901
  3.0029852779073081  2.4931258151423723 -21.9158553077294869
  2.9736363604857767  0.0783733533819562 -23.4376453139149952
  2.9603498032199416  0.1025178069736748 -26.1171786360051925
  2.2238757187242824  3.0291647715545604 -18.0293486901658682
  0.1159704394409309  1.8436583102641160 -15.0000000000000036
  0.1204378908984662  1.8459306468776691 -17.3501246890710696
 -1.9518915227965359  3.0757579599973264 -20.3794909095427315
