Se Hf Cd I 
 1.0000000000000000
     4.2949947968075257   -0.0000000000000000    0.0000000000000000
    -2.1474973971854694    3.7202784772710622    0.0000000000000000
     0.0000000000000000    0.0000000000000000   41.0635360259396549
 Se  Hf  Cd  I  
   2   2   1   2
Cartesian
  1.2759061225112394  0.7108181441635845 15.0000000000000018
  1.2761720577132680  3.1904277859420818 18.6912765295358660
  1.2759678325461161  0.7107503510757268 17.7686483511876112
  1.2761104233426297  3.1904956318325803 15.9230671053787347
  0.7282923535201175  0.2142670511475432 24.3430196041617464
  2.8757897523299776  1.4543598769045640 26.0635360259396549
  0.7282923543323132  2.6944527026615845 22.6225031823838307
