F  Pd Se Ir
 1.0000000000000000
     3.3512742144266849   -0.0000000000000000    0.0000000000000000
    -1.6756371052990413    2.9089035737565534    0.0000000000000000
    -0.0000000000000013    0.0000000000000000   41.7809784596834817
 F   Pd  Se  Ir 
   2   2   2   2
Cartesian
 -0.4040933531001441  1.6635276401724814 15.0000000000000000
  2.9454814676853380  1.6675696237927913 18.8818537777082369
  1.2705708262519200  0.6966570734436133 17.7492457296891502
  1.2707344600274642  2.6347186876231841 16.1325574662624049
  0.9282242813852957  0.1949043916674685 22.0062347230365702
  0.9279739868623563  2.1333679681038240 26.7809784596834817
  0.9279062262887571  0.1972074167795532 25.3964882539068277
  0.9282921425742433  2.1310629959845184 23.3907558054899845
