Ba Br Sb Se Sb
 1.0000000000000000
     4.7543539162709649    0.0000000000000000    0.0000000000000000
    -2.3771769581354825    4.1174867326826634    0.0000000000000000
    -0.0000000000000000    0.0000000000000000   41.1524421409291676
 Ba  Br  Sb  Se  Sb 
   1   2   1   2   1
Cartesian
  0.3867077790695662  0.9509182460852380 16.8371869788974422
  2.7638847372050486  2.3234138236461255 18.6743739577948844
  2.7638847372050486  2.3234138236461255 15.0000000000000000
  0.5964133772277800  3.5153293635971212 25.8571566041903296
  2.9778206605130277  2.1475664977671394 22.6654920214866493
  0.5956085962940818  0.7706522145175138 26.1524421409291605
  0.5998077969043476  3.5202045821414258 22.9606848068030160
