Zn Cl Zr S 
 1.0000000000000000
     3.6405733985387259    0.0000000000000000    0.0000000000000000
    -1.8202866992693632    3.1528290474763860    0.0000000000000000
    -0.0000000000000000    0.0000000000000000   39.1417290009365573
 Zn  Cl  Zr  S  
   1   2   1   2
Cartesian
  0.4518188050259754  0.6613609630692944 16.3674669885821373
  2.2721055042953378  1.7123039788947558 17.7349339771642533
  0.4518188050259754  2.7632469947202174 15.0000000000000000
  0.6267848454733196  0.5795018307840523 22.6958465581924962
  2.4470715447426818  1.6304448466095141 24.1417290009365573
  0.6267848454733193  2.6813878624349763 21.2499641154483676
