W  S  F  Pd
 1.0000000000000000
     3.2401860971226402   -0.0000000000000000    0.0000000000000000
    -1.6200930476204056    2.8077844567789940    0.0000000000000000
    -0.0000000000000012    0.0000000000000000   40.3604323658835753
 W   S   F   Pd 
   1   2   2   2
Cartesian
 -0.3022588277299789  1.3836379164636348 16.5727974379861820
  1.3178342211449789  2.3195660687232995 18.1455948759723711
  1.3178342211449789  2.3195660687232995 15.0000000000000000
 -0.7845888984321970  1.6319110593384201 21.4785785881753384
  2.4539541365887816  1.6358125357868143 25.3604323658835753
  0.8345634732061579  0.6986507844120251 24.2278243178644885
  0.8347216822391784  2.5693416267165903 22.6111360544377433
