Ga Se Ga I  Pt
 1.0000000000000000
     3.8989659662557914    0.0000237985287992    0.0000000000000000
    -1.9494623670570683    3.3766498193838590    0.0000000000000000
    -0.0000000000000002   -0.0000000000000000   42.8398986418446910
 Ga  Se  Ga  I   Pt 
   1   2   1   2   2
Cartesian
  0.6526553456000734  2.8654429203354645 18.6412241834118788
  2.6021909104263279  1.7398666244876786 15.0000000000000000
  0.6524593621118734  0.6144496155568848 19.8126831402394146
  0.6525325603357459  2.8655231386171267 16.1714585946549185
 -0.7371710231062238  1.5529883589561431 23.4434116644108030
  3.1616434722940667  1.5531804295344298 27.8398986418446910
  1.2120815205423598  0.4274638921594379 26.3510069478849260
  1.2121281117692524  2.6785370793002712 24.9314957834048059
