Pd Se Ru Br
 1.0000000000000000
     3.7576290149146825    0.0000000000000000    0.0000000000000000
    -1.8788145074573417    3.2542021849136105    0.0000000000000000
     0.0000000000000000    0.0000000000000000   38.8184769836147439
 Pd  Se  Ru  Br 
   1   2   1   2
Cartesian
  0.5978807712396990  0.9782505904406156 16.3130582836290756
  2.4766952786970391  2.0629846520784856 17.6261168079604857
  0.5978807712396986  3.1477187137163560 15.0000000000000000
  0.7805871838614187  0.5739986338723292 22.5016278296651393
  2.6594016913187590  1.6587326955101995 23.8184769836147439
  0.7805871838614185  2.7434667571480698 21.1847786757155347
