S  Cd Ga Te Ga
 1.0000000000000000
     4.2319878427229032   -0.0000000000000000    0.0000000000000000
    -2.1159939229770988    3.6665107086183513    0.0000000000000000
     0.0000000000000000    0.0000000000000000   41.9507932822073855
 S   Cd  Ga  Te  Ga 
   2   2   1   2   1
Cartesian
  1.4911396788479123  0.3558645341909454 15.0000000000000000
  1.4914530926614828  2.7989954208052357 18.2374084038473541
  1.4907745943539139  0.3559336656482398 17.8133498455626693
  1.4918183994173801  2.7989263114561078 15.4239508926595690
  0.7331985562909080  3.4837504430364494 25.6891703161913121
  2.8492437897772183  2.2615562034144223 21.9621395415414824
  0.7331874531858429  1.0394224728973227 26.9507932822073926
  0.7332387936127134  3.4837389232494718 23.2237745887468066
