I  Cu S  Hf
 1.0000000000000000
     4.1624860244263564    0.0000000000000000    0.0000000000000000
    -2.0812430098355001    3.6053512677759825    0.0000000000000000
    -0.0000000000000000    0.0000000000000000   40.4582066067204735
 I   Cu  S   Hf 
   2   2   2   2
Cartesian
  1.2435861726223818  0.9900578953737842 15.0000000000000000
  1.2435861533950705  3.3936254192422775 18.8558029306399995
  1.2435861726223820  0.9900578953737845 17.6212990317599960
  1.2435861533950705  3.3936254192422766 16.2370991544799956
  1.3089598986732733  0.9064278924140194 22.1327199601381004
  1.3092852143466109  3.3094784089658895 25.4582066067204735
  1.3090873471423909  0.9063030272128585 24.7373010954363863
  1.3091577559027809  3.3096032793833037 22.8537163055821537
