Ge Te Br Cd
 1.0000000000000000
     4.0238409164517295    0.0014024937248978    0.0000000000000000
    -2.0106958527240337    3.4905662747729176    0.0000000000000000
     0.0000000000000031    0.0000000000000000   40.3960671236605791
 Ge  Te  Br  Cd 
   1   1   2   2
Cartesian
  2.7483055773104952  1.6112862045743326 16.5598212339094282
  0.7367933209185744  2.7743407982570054 15.0000000000000000
  1.0419227841030119 -0.2310164538492075 19.6732179137527758
  1.0549901071092374  4.3999697018993169 25.3960671236605791
  1.0547947486922373  2.0730871210525361 23.8742771174750708
  1.0417125033389041  2.0961941280542833 21.1947437953848734
