Tl Te Sn I 
 1.0000000000000000
     4.5434502777766745    0.0000000000000000    0.0000000000000000
    -2.2717251388883373    3.9347433613860638    0.0000000000000000
     0.0000000000000000    0.0000000000000000  -42.6662499886728526
 Tl  Te  Sn  I  
   2   2   1   2
Cartesian
  2.5024540235070081  1.8995212152285210 -19.2838466837136195
  2.5024540235070081  1.8995212152285210 -16.3836225478163655
  0.2307288846186712  3.2111023356905415 -20.6674692707617140
  0.2307288846186712  3.2111023356905415 -15.0000000000000000
  0.0036572917263576  0.9580672397315633 -25.8203878728695670
  2.2753824306146955  2.2696483601935844 -23.9745257570662673
  0.0036572917263575  3.5812294806556060 -27.6662499886728526
