Br Cd Tl S  Tl
 1.0000000000000000
     4.0826012058574008    0.0014024937248978    0.0000000000000000
    -2.0400759974268698    3.5414541781319597    0.0000000000000000
     0.0000000000000034    0.0000000000000000   43.9909354688750085
 Br  Cd  Tl  S   Tl 
   2   2   1   2   1
Cartesian
  1.1561565021810896 -0.7354179329449322 15.0000000000000036
  1.1693909269626299  3.9630683417516219 20.7228492099078068
  1.1692046344698479  1.6022696584636469 19.2010592037222949
  1.1559312302488278  1.6257135343282290 16.5215258816321011
  0.7804752226276216  3.0623064454059392 27.7940780830434377
  2.8212207492056116  1.8818228323570723 23.7131880567180353
  0.7793310128075007  0.7005670470995582 28.9909354688750085
  0.7800009649553060  3.0627750651482435 24.9100433380294888
