Sn Se Pt Te
 1.0000000000000000
     3.9613150898823806   -0.0000000000000000    0.0000000000000000
    -1.9806575449411903    3.4305995002327787    0.0000000000000000
     0.0000000000000000    0.0000000000000000   37.8219399370419609
 Sn  Se  Pt  Te 
   1   1   1   2
Cartesian
  2.3686041733579142  1.6246272077052528 16.5586206887278209
  0.3879466284167244  2.7681603744495122 15.0000000000000000
  0.6140200926776156  0.2043491695067180 21.4347257074884538
  2.5946776376188052  1.3478823362509775 22.8219399370419609
  0.6140200926776156  2.4914155029952370 20.0475114788914226
