Zr Te Ge Te
 1.0000000000000000
     3.9329880124311414   -0.0000000000000000    0.0000000000000000
    -1.9664940062155707    3.4060675315450313    0.0000000000000000
     0.0000000000000000    0.0000000000000000   39.1230722864490303
 Zr  Te  Ge  Te 
   1   2   1   1
Cartesian
 -0.6999347378407754  1.3373151754733117 16.8615645620742072
  1.2665592683747955  2.4726710193216550 18.7231291241485991
  1.2665592683747955  2.4726710193216550 15.0000000000000000
  2.1144134941653698  1.3968500002565623 24.1230722864490303
  0.1479194879497996  2.5322058441049062 22.5632510525396022
