Mg Cl Pt S 
 1.0000000000000000
     3.6232789304271504    0.0000000000000000    0.0000000000000000
    -1.8116394652135754    3.1378515987468214    0.0000000000000000
     0.0000000000000000    0.0000000000000000   38.4699785342697567
 Mg  Cl  Pt  S  
   1   2   1   2
Cartesian
  0.6615115073340831  0.5981919035367629 16.3729058647441335
  2.4731509725476588  1.6441424364523702 17.7458117294882669
  0.6615115073340837  2.6900929693679778 15.0000000000000018
  0.6934023992975072  1.0384169051024033 22.2379511647692851
  2.5050418645110821  2.0843674380180102 23.4699785342697567
  0.6934023992975069  3.1303179709336173 21.0059237952688136
