Ni Se Si Se
 1.0000000000000000
     3.5249933339425970   -0.0000000000000001    0.0000000000000000
    -1.7623048002003254    3.0533205980600151    0.0000000000000000
     0.0000000000000012    0.0000000000000021   39.3083150658790714
 Ni  Se  Si  Se 
   1   2   1   2
Cartesian
  0.5732690069542566 -0.0165319587711236 16.2453409434781584
  2.3358296295158789  1.0012415739155478 17.4906818874949650
  0.5733969181349051  2.0190151066022199 15.0000000000000036
  0.5403717251443199  0.6835929565493679 22.8686900369234252
  2.3034592961989127  1.7005485638103681 21.4290619790635120
  0.5405533693830300  2.7183877151884297 24.3083150658790714
