Hf S  Hg F 
 1.0000000000000000
     3.6556592758815469   -0.0000000000000000    0.0000000000000000
    -1.8278296379407715    3.1658938004936430    0.0000000000000000
    -0.0000000000000002   -0.0000000000000000  -38.2300192187286427
 Hf  S   Hg  F  
   1   2   1   2
Cartesian
  0.6778404902098799  0.9445731031807784 -16.4481043019911937
  2.5056701281506544  1.9998710366786594 -15.0000000000000000
  0.6778404902098812  3.0551689701765410 -17.8962086039820498
  0.7942291117970210  0.7797990403172941 -22.2013470663684593
  2.6220587497377852  1.8350969738151748 -21.1726749140082440
  0.7942291117970196  2.8903949073130555 -23.2300192187286427
