Pb Te S  Zr
 1.0000000000000000
     4.2596108967469117    0.0000000000000000    0.0000000000000000
    -2.1298054471752375    3.6894329808606487    0.0000000000000000
     0.0000000000000000    0.0000000000000000  -38.8285494636578434
 Pb  Te  S   Zr 
   1   1   2   2
Cartesian
  2.5941513513982204  1.2748100576781403 -22.1440425816113660
  0.4643459034241708  2.5046210512983560 -23.8285494636578434
  1.4006243527385462  1.3613969337371397 -18.3278617161116166
  1.4009139147366163  3.8205559022180973 -14.9999999999999964
  1.4006956398202999  1.3613131451375393 -15.7040531133698984
  1.4008426164928831  3.8206396938258189 -17.6237705964091482
