Pb S  Br Cu
 1.0000000000000000
     3.9508804910845643   -0.0000000000000000    0.0000000000000000
    -1.9754402444133747    3.4223768548980478    0.0000000000000000
     0.0000000000000000    0.0000000000000000  -38.8250777106538720
 Pb  S   Br  Cu 
   1   1   2   2
Cartesian
  2.6989457837955362  1.1802445757003885 -22.3859138259149297
  0.7235055386295569  2.3210368606664042 -23.8250777106538720
  1.3232160648929603  1.0221854123317187 -18.6331282326220489
  1.3241341760838319  3.3028207378324232 -14.9999999999999964
  1.3228687535566048  1.0224130699541527 -16.1473379424852936
  1.3244793818881493  3.3025939065952175 -17.4854497275087439
