I  Cd Tl Te Tl
 1.0000000000000000
     4.4603252324055749    0.0008383076656587    0.0000000000000000
    -2.2294306364858389    3.8700100327577545    0.0000000000000000
     0.0000000000000034    0.0000000000000000   44.1490000799020663
 I   Cd  Tl  Te  Tl 
   2   2   1   2   1
Cartesian
  1.3018082727481135 -0.6936738591138680 15.0000000000000000
  1.3135849165532232  4.4342849112148874 20.9102076548876994
  1.3188876973752595  1.8567343609200568 19.2986420562647396
  1.2996489736641863  1.8816427865739920 16.6116177631989395
  0.8493007669200081  3.2303283743624256 27.7699048676711442
  3.0791023320120994  1.9400511025586469 23.4908579593998468
  0.8484503459925218  0.6496505666413033 29.1490000799020592
  0.8488186388764275  3.2308839639943701 24.8699484682324652
