Hf S  Zr Se
 1.0000000000000000
     3.7235097567660627   -0.0000000000000000    0.0000000000000000
    -1.8617548783830313    3.2246540405986259    0.0000000000000000
    -0.0000000000000000    0.0000000000000000   39.4284593851700222
 Hf  S   Zr  Se 
   1   2   1   2
Cartesian
  0.5805677630276151  0.7144591753753020 16.4481043019908597
  2.4423226414106463  1.7893438555748442 17.8962086039820534
  0.5805677630276151  2.8642285357743864 15.0000000000000000
  0.6449159313352657  0.8228484947380326 22.8478540800379974
  2.5066708097182966  1.8977331749375741 24.4284593851700222
  0.6449159313352657  2.9726178551371163 21.2672487749058448
