Ti Te Sn S 
 1.0000000000000000
     3.6520746740785412    0.0000000000000000    0.0000000000000000
    -1.8260373370392706    3.1627894442697908    0.0000000000000000
    -0.0000000000000000    0.0000000000000000  -42.2703162386451723
 Ti  Te  Sn  S  
   2   2   1   2
Cartesian
  2.1248541527600979  1.4266769943021798 -19.0942779024546567
  2.1248541527600979  1.4266769943021798 -16.7151615237054045
  0.2988168157208272  2.4809401423921096 -20.8094364375122609
  0.2988168157208272  2.4809401423921096 -14.9999999999999964
  0.1865970987130310  0.5476298859633235 -25.7927448358607414
  2.0126344357523021  1.6018930340532538 -24.3151734330763176
  0.1865970987130310  2.6561561821431843 -27.2703162386451652
