Ge Cl Ge I 
 1.0000000000000000
     4.2664382424325389   -0.0000000000000002    0.0000000000000000
    -2.1332191212162694    3.6948439016250880    0.0000000000000000
     0.0000000000000010    0.0000000000000017   42.4840699121918064
 Ge  Cl  Ge  I  
   2   2   1   2
Cartesian
  1.3193214026592082  0.6937380233228664 17.1900136315555052
  1.3193214063856824  3.1569672910729261 17.8618516334689801
  1.3193214026592082  0.6937380233228659 15.0000000000000000
  1.3193214063856824  3.1569672910729261 20.0518652577974024
  0.7002255282198235  0.4277012885889691 25.7392940182105576
  2.8334446494360930  1.6593159224639975 27.4840699121917993
  0.7002255282198236  2.8909305563390273 23.9945181242293017
