Ge Cl I  Zn
 1.0000000000000000
     4.2120288781404573    0.0000000000000033    0.0000000000000000
    -2.1046284706076079    3.6485234953451187    0.0000000000000000
     0.0000000000000024    0.0000000000000040   43.5874292990168826
 Ge  Cl  I   Zn 
   2   2   2   2
Cartesian
  0.7060483654257994  0.8825145146427890 17.1900136315555052
  0.7069723480798309  3.3148635115395373 17.8618516334689801
  0.7060483654257994  0.8825145146427884 15.0000000000000018
  0.7069723480798311  3.3148635115395373 20.0518652577974024
  0.4093120547706722  0.9779082925555784 23.2840792655803774
  0.3989577518897865  3.3995370516102796 28.5874292990168755
  2.5039423797740437  2.1807841675952635 27.1214730044758667
  2.5167089494452872  2.1971815249315454 24.7499285016952122
