Ti F  Ni O 
 1.0000000000000000
     2.8423836943347283    0.0000000000000000    0.0000000000000000
    -1.4211918471673641    2.4615764865965355    0.0000000000000000
     0.0000000000000001    0.0000000000000000   38.4252187888089338
 Ti  F   Ni  O  
   1   2   1   2
Cartesian
 -0.4709878586164979  1.0493451598459194 16.3005111886215630
  0.9502039885508656  1.8698706553780977 17.6010226315821896
  0.9502039885508656  1.8698706553780977 14.9999999999999982
  0.4313427165671749  0.7964495143723915 22.4758081350678260
  1.8525345637345387  1.6169750099045701 23.4252187888089338
  0.4313427165671747  2.4375005054367485 21.5263974813267183
