Zr Cl Ni S 
 1.0000000000000000
     3.3818793918251027    0.0000000000000000    0.0000000000000000
    -1.6909396959125513    2.9287934658556063    0.0000000000000000
     0.0000000000000000    0.0000000000000000   39.5827875802762250
 Zr  Cl  Ni  S  
   1   2   1   2
Cartesian
 -0.3222815439065001  1.0709528186513053 16.7078992199188079
  1.3686581520060508  2.0472173072698405 18.4157984398376016
  1.3686581520060508  2.0472173072698405 15.0000000000000000
  0.4987678989732920  0.9201733295147793 23.4073536520509684
  2.1897075948858435  1.8964378181333146 24.5827875802762250
  0.4987678989732920  2.8727023067518500 22.2319197238257118
