Ca Br Se Zn
 1.0000000000000000
     4.0970789894349799    0.0000000000000000    0.0000000000000000
    -2.0485394935535481    3.5483377613601115    0.0000000000000000
     0.0000000000000000    0.0000000000000000   40.3102381465902297
 Ca  Br  Se  Zn 
   1   2   2   2
Cartesian
 -0.7133329428352089  1.6464625598707405 16.7571598031843862
  1.3352065522702619  2.8292418136574442 18.5143196063686446
  1.3352065522702619  2.8292418136574442 15.0000000000000018
  1.1862329382747403  0.6993302269391984 21.8969345558992359
  1.1863387923539070  3.0647546433610984 25.3102381465902226
  1.1861318421375233  0.6993854062296845 24.5526317375091594
  1.1864398589335157  3.0646994620766241 22.6549161579874792
