Ge F  Ga Te Ga
 1.0000000000000000
     4.1994044211221677   -0.0000000000000000    0.0000000000000000
    -2.0997022134092713    3.6368268736734199    0.0000000000000000
     0.0000000000000013    0.0000000000000023   42.9524306293395242
 Ge  F   Ga  Te  Ga 
   2   2   1   2   1
Cartesian
  1.7791384456868919  0.4846770747105151 16.7809067055787118
  1.7791384474560248  2.9092283238261274 17.3739865908562336
  1.7791384456868919  0.4846770747105145 15.0000000000000036
  1.7791384474560248  2.9092283238261274 19.1548933276439897
  0.6090679298371573  3.3314584844255819 26.6908076633234330
  2.7088210578697169  2.1191590507819775 22.9637768886735998
  0.6090569130484149  0.9069196363654778 27.9524306293395171
  0.6091078573590170  3.3314470579020599 24.2254119358789239
