Pb Se Bi Se Bi
 1.0000000000000000
     4.8974273684071434    0.0000000000000000    0.0000000000000000
    -2.4487136842035717    4.2412965142297567    0.0000000000000000
     0.0000000000000000    0.0000000000000000   40.1863160517173910
 Pb  Se  Bi  Se  Bi 
   1   2   1   2   1
Cartesian
  0.2260591896329469  1.3081346105396756 16.2130084440828348
  2.6747728738365186  2.7219001152829274 17.4260168881656696
  2.6747728738365186  2.7219001152829274 15.0000000000000000
  0.6684933102384208  3.8861732002287015 24.8261023634104241
  3.1220745272436341  2.4722570745243444 21.3927203739186282
  0.6678286598600436  1.0584298820564515 25.1863160517173910
  0.6726858094951805  3.8869219250534943 21.7529459156180245
