Cl Ag In Te In
 1.0000000000000000
     4.3907423817174589    0.0000000000000000    0.0000000000000000
    -2.1953711896019739    3.8105650947453036    0.0000000000000000
    -0.0000000000000000    0.0000000000000000   42.4374169716487515
 Cl  Ag  In  Te  In 
   2   2   1   2   1
Cartesian
  1.2715204032253677  0.3668873860326353 15.0000000000000000
  1.2670185690684181  2.9020287778436957 18.2868565417185991
  1.2669592637259555  0.3690455910163239 17.9775021923323379
  1.2716154493822771  2.8998518532346833 15.3080484603362645
  0.6783136851377427  3.4557386066225355 26.0628487811012839
  2.8736913646046127  2.1851526833562955 21.8796849887462272
  0.6782570341041136  0.9150439386575751 27.4374169716487444
  0.6782596536704072  3.4559369984459112 23.2542561968452581
