Sn Te Ca Cl
 1.0000000000000000
     4.1552020164609891   -0.0000000000000000    0.0000000000000000
    -2.0776010082304950    3.5985105041115419    0.0000000000000000
    -0.0000000000000000    0.0000000000000000   37.8170139372302998
 Sn  Te  Ca  Cl 
   1   1   1   2
Cartesian
  2.3365864722251208  1.2468829814941749 16.6861605505646438
  0.2589854639946258  2.4463864828646886 15.0000000000000000
  0.7876705007137171  0.4413754980918490 21.4148431208012262
  2.8652715089442107  1.6408789994623623 22.8170139372302998
  0.7876705007137169  2.8403825008328756 20.0126723043721597
