Ge Cl Se Zr
 1.0000000000000000
     4.2789666229374266   -0.0000000000000002    0.0000000000000000
    -2.1394833102333179    3.7063007000132151    0.0000000000000000
     0.0000000000000010    0.0000000000000017   41.8963766777214062
 Ge  Cl  Se  Zr 
   2   2   2   2
Cartesian
  1.3451851077799666  1.0264159574894589 17.1900136315555088
  1.3451851123409804  3.4972830908316035 17.8618516334689836
  1.3451851077799666  1.0264159574894585 15.0000000000000036
  1.3451851123409806  3.4972830908316035 20.0518652577974024
  1.2498375711758019  1.0788116267431973 23.2369495767630880
  1.2501149475339597  3.5491701707654761 26.8963766777214133
  1.2498354595215109  1.0787749471037544 26.0108456011730880
  1.2501170721808956  3.5492068279231033 24.1227003324488720
