I  Zn Ge I 
 1.0000000000000000
     4.2460274278323027    0.0000000000000035    0.0000000000000000
    -2.1216277454535311    3.6779671030690064    0.0000000000000000
     0.0000000000000013    0.0000000000000023   42.7428270855066685
 I   Zn  Ge  I  
   2   2   1   2
Cartesian
  0.5856658087803913  0.8468618567327901 15.0000000000000000
  0.5752205030159445  3.2880331752161096 20.3033500334364945
  2.6971998303230280  2.0594449477052716 18.8373937388954857
  2.7100693985949404  2.0759746318191481 16.4658492361148348
 -0.0168486852753998  1.0618904207888957 25.9980511915254340
  2.1066270181282927  2.2878794551452333 27.7428270855066756
 -0.0159247063003196  3.5138684895015668 24.2532752975441852
