Sn S  Pb S 
 1.0000000000000000
     3.8000206098383886   -0.0000000000000000    0.0000000000000000
    -1.9000103049191943    3.2909143830244787    0.0000000000000000
    -0.0000000000000000    0.0000000000000000   38.1461843628525514
 Sn  S   Pb  S  
   1   1   1   2
Cartesian
  2.1010326831392128  1.1371561239546111 16.4598471617338120
  0.2010223782200180  2.2341275849627702 15.0000000000000000
  0.9427382636412747  0.2382054734941811 21.6041940048149179
  2.8427485685604692  1.3351769345023405 23.1461843628525514
  0.9427382636412747  2.4321483955105001 20.0622036467772844
