Zn F  Zr O 
 1.0000000000000000
     3.2068277533289327    0.0000000000000000    0.0000000000000000
    -1.6034138766644666    2.7771942999438335    0.0000000000000000
     0.0000000000000000    0.0000000000000000   37.5704570376387252
 Zn  F   Zr  O  
   1   2   1   2
Cartesian
  0.4456822957139259  0.7010606274353315 15.9957669043445030
  2.0490961723783916  1.6267920607499422 16.9915338086889882
  0.4456822957139259  2.5525234940645531 15.0000000000000000
  0.6341930366141456  0.5675643108967903 21.6091250652071452
  2.2376069132786114  1.4932957442114014 22.5704570376387252
  0.6341930366141455  2.4190271775260128 20.6477930927755686
