Si F  In S  In
 1.0000000000000000
     3.9318967584867188    0.0000000000000000    0.0000000000000000
    -1.9659483792409826    3.4051224779060600    0.0000000000000000
    -0.0000000000000013   -0.0000000000000023  -42.9836182774654745
 Si  F   In  S   In 
   2   2   1   2   1
Cartesian
  1.6579015142777516  0.4669315934257278 -26.3411892420259335
  1.6579015123236220  2.7370132453631006 -25.6373621816056030
  1.6579015142777516  0.4669315934257273 -27.9836182774654851
  1.6579015123236220  2.7370132453631011 -23.9949331461650388
  0.6056340940894841  3.1534390488166668 -16.1748110053863954
  2.5715922048287174  2.0180718410789162 -20.1674250803514425
  0.6054215337536080  0.8832010834115638 -15.0000000000000000
  0.6054312597064079  3.1536509106950192 -18.9926150491279735
