Hf Te Ru Br
 1.0000000000000000
     3.8448654718506683    0.0000000000000000    0.0000000000000000
    -1.9224327359253341    3.3297511727563212    0.0000000000000000
    -0.0000000000000000    0.0000000000000000   40.2074894015667326
 Hf  Te  Ru  Br 
   1   2   1   2
Cartesian
 -0.6286135430235679  1.4644831054410377 16.8494380278571043
  1.2938191929017662  2.5744001630264775 18.6988761198817670
  1.2938191929017662  2.5744001630264775 15.0000000000000000
  0.5272331484988997  0.9898940768093114 23.8906402476171280
  2.4496658844242338  2.0998111343947521 25.2074894015667326
  0.5272331484988998  3.2097281919801928 22.5737910936675235
