Sn Se Zn Br
 1.0000000000000000
     3.8524583064043001   -0.0000000000000000    0.0000000000000000
    -1.9262291532021503    3.3363267603664983    0.0000000000000000
     0.0000000000000000    0.0000000000000000   38.0780411051658376
 Sn  Se  Zn  Br 
   1   1   1   2
Cartesian
  2.3158971860883946  1.5517960191947753 16.5586206887278244
  0.3896680328862448  2.6639049393169412 15.0000000000000036
  0.6537986195181179  0.1042186684968930 21.5954424998342169
  2.5800277727202667  1.2163275886190590 23.0780411051658376
  0.6537986195181181  2.3284365087412251 20.1128438945026140
