In O  Ge S 
 1.0000000000000000
     3.4419196732324213    0.0000000000000000    0.0000000000000000
    -1.7209598366162107    2.9807898748047110    0.0000000000000000
    -0.0000000000000000    0.0000000000000000   41.0759416898268910
 In  O   Ge  S  
   2   2   1   2
Cartesian
  1.6358470109850318  1.3641783538958883 15.7906696250192038
  1.6358470109850318  1.3641783538958883 18.6409348226404816
 -0.0851128256311788  2.3577749788307920 14.9999999999999982
 -0.0851128256311788  2.3577749788307920 19.4316044446728213
 -0.5564136364826235  1.3457546753296725 24.6789325639903936
  1.1645462001335876  2.3393513002645761 26.0759416898268910
 -0.5564136364826235  3.3329479251994796 23.2819234381537115
