Ru Br Zr S 
 1.0000000000000000
     3.7313361362092046    0.0000000000000000    0.0000000000000000
    -1.8656680681046027    3.2314318840160432    0.0000000000000000
     0.0000000000000000    0.0000000000000000  -39.0132169027730598
 Ru  Br  Zr  S  
   1   2   1   2
Cartesian
  0.6730859863513676  1.0079603552583545 -22.6963677488234481
  2.5387540544559695  2.0851043165970360 -21.3795185948738471
  0.6730859863513674  3.1622482779357175 -24.0132169027730527
  0.7384420691666517  0.7014448463756702 -16.4458824427440575
  2.6041101372712534  1.7785888077143510 -14.9999999999999929
  0.7384420691666512  2.8557327690530321 -17.8917648854881826
