Cr Te Si Se
 1.0000000000000000
     3.4892034320217289   -0.0000000000000001    0.0000000000000000
    -1.7444098492398914    3.0223256337975903    0.0000000000000000
     0.0000000000000012    0.0000000000000021   40.0741457761116848
 Cr  Te  Si  Se 
   1   2   1   2
Cartesian
 -0.5538040685019285  1.3158366566326365 16.7062363127964844
  1.1908616030992600  2.3232785345651665 18.4124726255929652
  1.1908616030992600  2.3232785345651665 15.0000000000000000
  0.6541928317477990  0.8396988987048641 23.6345207471560386
  2.3993801011157010  1.8463311541620762 22.1948926892961182
  0.6543739299449632  2.8538379846754682 25.0741457761116777
