Zn F  Al N 
 1.0000000000000000
     3.1397147486700590    0.0000000000000000    0.0000000000000000
    -1.5698573743350295    2.7190727329849453    0.0000000000000000
    -0.0000000000000000   -0.0000000000000000  -35.9719002028655623
 Zn  F   Al  N  
   1   2   1   1
Cartesian
  0.4781665583233565  0.3511998936127080 -15.9957669043444888
  2.0480239326583853  1.2575574712743560 -15.0000000000000036
  0.4781665583233567  2.1639150489360039 -16.9915338086889918
  0.7995473740358846  1.9279285573368492 -20.9719002028655623
  2.3694047483709144  1.0215709796752011 -20.9719002028655659
