Hf I  Zr Se
 1.0000000000000000
     3.7839964963115524   -0.0000000000000000    0.0000000000000000
    -1.8919982481557762    3.2770370936371132    0.0000000000000000
    -0.0000000000000000    0.0000000000000000   40.8743549174776675
 Hf  I   Zr  Se 
   1   2   1   2
Cartesian
 -0.4675737771271683  1.3214985349687089 16.9476853944779791
  1.4244244710286078  2.4138442328477465 18.8953707810581477
  1.4244244710286078  2.4138442328477465 15.0000000000000000
  0.4756024200932206  0.9528857623503068 24.2937496123456391
  2.3676006682489970  2.0452314602293442 25.8743549174776675
  0.4756024200932206  3.1375771581083818 22.7131443072134900
