Si F  Tl S  Tl
 1.0000000000000000
     4.0026390482887830    0.0000000000000000    0.0000000000000000
    -2.0013195241420147    3.4663870979965283    0.0000000000000000
     0.0000000000000013    0.0000000000000023   43.0945825022675066
 Si  F   Tl  S   Tl 
   2   2   1   2   1
Cartesian
  1.6995499252006103  0.4756975090130377 16.6424290354395481
  1.6995499232112941  2.7866222410107224 17.3462560958598786
  1.6995499252006103  0.4756975090130371 14.9999999999999982
  1.6995499232112941  2.7866222410107229 18.9886851313004428
  0.5940712497424916  3.2076588077558608 26.8977251164359359
  2.5952469341304596  2.0517400823530059 22.8168350901105335
  0.5937499665037645  0.8964382071230782 28.0945825022675066
  0.5936061220245326  3.2081175629982241 24.0136903714219834
