Ti Te Ru Br
 1.0000000000000000
     3.7585901561792641    0.0000000000000000    0.0000000000000000
    -1.8792950780896325    3.2550345576653634    0.0000000000000000
     0.0000000000000000    0.0000000000000000   40.0449730588767068
 Ti  Te  Ru  Br 
   1   2   1   2
Cartesian
 -0.5179517275700803  1.2687269833028256 16.7885301883608946
  1.3613433505195514  2.3537385025246138 18.5770603767261022
  1.3613433505195514  2.3537385025246138 15.0000000000000036
  0.5114836002519370  0.9417284417534779 23.7281239049271022
  2.3907786783415679  2.0267399609752657 25.0449730588767068
  0.5114836002519367  3.1117514801970536 22.4112747509775048
