Br Cu Tl S  Tl
 1.0000000000000000
     4.0068110495243419    0.0000000000000000    0.0000000000000000
    -2.0034055236332633    3.4708141393547454    0.0000000000000000
    -0.0000000000000000    0.0000000000000000   42.5555329486282545
 Br  Cu  Tl  S   Tl 
   2   2   1   2   1
Cartesian
  1.1696927186860464  0.0670295856281907 15.0000000000000000
  1.1706238270884652  2.3799429993368526 18.6331282326220524
  1.1693404906438976  0.0672604653145539 17.4857902901367552
  1.1709739197916549  2.3797129577316412 16.1476785051133049
  0.7336935232383260  3.0213709138530551 26.3586755627966873
  2.7369550579424207  1.8639759251652788 22.2777855364712849
  0.7333719043709063  0.7071985744508547 27.5555329486282545
  0.7332279107120210  3.0218302549874072 23.4746408177827348
