Pb I  Hg
 1.0000000000000000
     4.4789964741231003   -0.0000000000000011    0.0000000000000000
    -2.2394982357890112    3.8948236137413255    0.0000000000000000
     0.0000000000000034    0.0000000000000000   42.2302844303364608
 Pb  I   Hg 
   1   4   2
Cartesian
 -0.4233261514795011  1.7063427280316619 17.0310965280492574
  1.8161720860062291  3.0046172659454360 19.0621930560985149
  1.8161720860062287  3.0046172659454360 15.0000000000000000
  1.2513099915840444 -0.4469480449837846 21.3060526848398020
  1.2611177212418094  4.7104691771261651 27.2302844303364679
  1.2697486499271329  2.1176270590696924 25.6101721095788797
  1.2480950210438251  2.1420109603267914 22.9267109400926543
