Pb S  Zr Se
 1.0000000000000000
     3.8214188114838326    0.0000000000000000    0.0000000000000000
    -1.9107094057419163    3.3094457692447357    0.0000000000000000
    -0.0000000000000000    0.0000000000000000   39.6309111811378756
 Pb  S   Zr  Se 
   1   2   1   2
Cartesian
  0.5254386879257595  0.7157715547729638 16.5419903580376335
  2.4361480936676760  1.8189201445212091 18.0839807160752670
  0.5254386879257595  2.9220687342694545 15.0000000000000000
  0.6320150121762476  0.7431966626747455 23.0503058760058508
  2.5427244179181638  1.8463452524229904 24.6309111811378756
  0.6320150121762476  2.9494938421712353 21.4697005708736981
