F  Pd Hf O 
 1.0000000000000000
     3.2744271518399728   -0.0000000000000000    0.0000000000000000
    -1.6372135749790719    2.8374380800165770    0.0000000000000000
     0.0000000000000012    0.0000000000000000  -38.5513785983437458
 F   Pd  Hf  O  
   2   2   1   2
Cartesian
 -0.3866909671077244  1.5288521122971517 -18.8818537777082298
  2.8860757593749939  1.5327947930881340 -14.9999999999999947
  1.2495719911765364  0.5857354723251942 -16.1326080480190797
  1.2497318720958404  2.4761830880878377 -17.7492963114458249
  0.7399433579545084 -0.3873121310006646 -22.5789490066102871
  2.3771569341881333  0.5585005623381945 -21.6065194148768285
  0.7399433585817847  1.5043132556770538 -23.5513785983437458
