Ge S  Pt S 
 1.0000000000000000
     3.5085953391062805    0.0000000000000000    0.0000000000000000
    -1.7542976695531403    3.0385326952657157    0.0000000000000000
    -0.0000000000000000    0.0000000000000000   38.8619919297334135
 Ge  S   Pt  S  
   1   2   1   2
Cartesian
  0.5027442824446134  0.8128982868653121 16.3970091258366857
  2.2570419519977545  1.8257425186205505 17.7940182516731795
  0.5027442824446134  2.8385867503757889 15.0000000000000000
  0.6429079870655041  0.4406143983194153 22.6299645602329420
  2.3972056566186444  1.4534586300746539 23.8619919297334135
  0.6429079870655040  2.4663028618298926 21.3979371907324740
