Cl Pt Se
 1.0000000000000000
     3.6898039840605419    0.0000000000000002    0.0000000000000000
    -1.8449019909931290    3.1960317353718102    0.0000000000000000
    -0.0000000000000002    0.0000000000000000   40.0854624500860908
 Cl  Pt  Se 
   2   3   2
Cartesian
 -0.6702941210695430  1.7691768770913541 15.0000000000000000
  3.0183770637874630  1.7703570526802599 19.1833300419795165
  1.1743093088865468  0.7048839290006853 17.8345471777233797
  1.1745296931281159  2.8351327013045631 16.3507841280650119
  0.7895906402141871  0.1445614987626203 23.7756537282783427
  2.6344926325901721  1.2099054105532239 25.0854624500860908
  0.7895906409056149  2.2752493223438268 22.4658450003809591
