Sr Br Se Hf
 1.0000000000000000
     4.3272259773779558   -0.0000000000000000    0.0000000000000000
    -2.1636129874706844    3.7481914984390183    0.0000000000000000
     0.0000000000000000    0.0000000000000000   40.6554189201429494
 Sr  Br  Se  Hf 
   1   2   2   2
Cartesian
 -0.4059792247124058  1.6717662568215421 16.8028165994893754
  1.7576337643826698  2.9211634229678816 18.6056331989787509
  1.7576337643826698  2.9211634229678816 14.9999999999999982
  1.4039066998782510  0.7763994527934535 21.9641423906070870
  1.4041746307472713  3.2746134535848821 25.6554189201429494
  1.4039688730073507  0.7763311510582169 24.7327907417946946
  1.4041125338502216  3.2746818085189351 22.8872094959858181
