Ge Br Ge Br Ge I 
 1.0000000000000000
     4.2738296963884412   -0.0506467540195987    0.0000000000000001
    -2.0931375306597677    3.7268614614299098    0.0000000000000001
     0.0000000000000020   -0.0000000000000000   35.7058769690965079
 Ge  Br  Ge  Br  Ge  I  
   1   1   1   1   1   2
Cartesian
  0.3669032347092787  0.7776036700552327 17.3501422193768633
 -1.7897629360760721 -0.4334010291085215 20.3794909095427279
 -1.7851919905192022 -0.4310798527745690 18.0293662204716618
 -3.9069677314988889  0.8255419559201758 15.0000000000000000
  3.9797720861671868  1.3708212234512029 18.9611010751152662
  6.1312793735395585  2.5793438745814399 20.7058769690965079
  4.0089569645234890  3.8385132797312753 17.2163251811340139
