Zr Br Sn S 
 1.0000000000000000
     3.6291227016591048   -0.0000000000000000    0.0000000000000000
    -1.8145613508295524    3.1429124530875985    0.0000000000000000
     0.0000000000000000    0.0000000000000000   40.2938555497728359
 Zr  Br  Sn  S  
   1   2   1   2
Cartesian
 -0.7679092408837697  1.4813163458148462 23.4676631272863965
  1.0466521099457826  2.5289538301773784 25.2938555497728359
  1.0466521099457826  2.5289538301773784 21.6414706967455857
  0.7345836749653396  1.0931679257698745 16.4775714027844238
  2.5491450257948922  2.1408054101324074 17.9551428055688476
  0.7345836749653396  3.1884428944949397 15.0000000000000000
