Pb I  Sn I 
 1.0000000000000000
     4.4609939789713273    0.0000000000000000    0.0000000000000000
    -2.2304969894856637    3.8633341119185935    0.0000000000000000
     0.0000000000000000    0.0000000000000000   42.0855457809422191
 Pb  I   Sn  I  
   1   2   1   2
Cartesian
  0.1570399605240547  1.6328947581173283 17.0310965280492574
  2.3875369500097183  2.9206727954235263 19.0621930560985149
  2.3875369500097183  2.9206727954235263 15.0000000000000000
  0.3405444458536360  1.6799227660226466 25.0716909843614175
  2.5710414353392999  2.9677008033288446 27.0855457809422191
  2.5710414353392999  2.9677008033288446 23.0578361877806124
