Si F  Mg Br
 1.0000000000000000
     3.9139185346712777    0.0000000000000000    0.0000000000000000
    -1.9569592673332623    3.3895528793669660    0.0000000000000000
     0.0000000000000013    0.0000000000000022   40.9061326450080713
 Si  F   Mg  Br 
   2   2   1   2
Cartesian
  1.3707507995482691  0.8562302283047798 16.6424290354395517
  1.3707507976030817  3.1159321478827562 17.3462560958598786
  1.3707507995482691  0.8562302283047794 15.0000000000000000
  1.3707507976030817  3.1159321478827571 18.9886851313004499
  0.7103230210302041  0.2342360999378284 24.3991069965923089
  2.6672822883666338  1.3640870597268187 25.9061326450080713
  0.7103230210317883  2.4939380195158081 22.8920813481765499
