Ti Se Pb O 
 1.0000000000000000
     3.5440998877445793   -0.0000000000000000    0.0000000000000000
    -1.7720499438722896    3.0692805363363824    0.0000000000000000
     0.0000000000000000    0.0000000000000000  -38.1263530743494812
 Ti  Se  Pb  O  
   1   2   1   1
Cartesian
 -0.1139037294460729  1.2701602823871130 -16.6199398271810068
  1.6581462144262171  2.2932537944992406 -15.0000000000000018
  1.6581462144262171  2.2932537944992406 -18.2398796543619532
  2.0506486688389329  1.7475768938643141 -22.1835126723784732
  0.2785987249666437  2.7706704059764413 -23.1263530743494847
