S  Ir Hf O 
 1.0000000000000000
     3.2668676397357364    0.0000000000000000    0.0000000000000000
    -1.6334338189312720    2.8295087284875553    0.0000000000000000
    -0.0000000000000000    0.0000000000000000   40.5064250907984302
 S   Ir  Hf  O  
   2   2   1   2
Cartesian
  1.0282891513324774  0.6543424268928479 14.9999999999999982
  1.0281416099766978  2.5408241652004460 19.6502937780201492
  1.0280994333933628  0.6546895793394780 18.3976254675456055
  1.0283315723323696  2.5404767482542949 16.2526844590143256
  0.5975040191196548 -0.0619681565274876 24.5339954990649716
  2.2309378392997221  0.8812014196350307 25.5064250907984302
  0.5975040197440522  1.8243709957975489 23.5615659073315129
