Pb Br S  Zr
 1.0000000000000000
     4.2516012141482395    0.0000000000000000    0.0000000000000000
    -2.1258006058759014    3.6824963922539560    0.0000000000000000
    -0.0000000000000000    0.0000000000000000   40.4108249334586986
 Pb  Br  S   Zr 
   1   2   2   2
Cartesian
 -0.6667132568592647  1.6550449827397260 16.8414801415537809
  1.4590873506142614  2.8825437801577110 18.6829602831084465
  1.4590873506142614  2.8825437801577110 15.0000000000000000
  1.1460693598330098  0.7994398864841790 22.0829632173470713
  1.1463583773463002  3.2539753330929950 25.4108249334586915
  1.1461405128680366  0.7993562554174700 24.7067718200887896
  1.1462872131702828  3.2540589671621696 22.7870543370495398
