I  In Te In
 1.0000000000000000
     4.4299586500309260   -0.0000000000000000    0.0000000000000000
    -2.2149793237363058    3.8379208068004051    0.0000000000000000
     0.0000000000000000    0.0000000000000000   45.2943307199118053
 I   In  Te  In 
   2   3   2   1
Cartesian
  1.5215538536291866  0.5960030092354268 15.0000000000000018
  1.5216139025650008  3.1540593241322008 21.3524645728796401
  1.5208275226444639  0.5964403069588112 19.4937901734133021
  1.5223403670464732  3.1536224802906179 16.8594830012002319
  0.8932710191291415  3.0093750591044710 28.9197625293643412
  3.1082568907025436  1.7296677111167198 24.7365987370092881
  0.8932138621048022  0.4504409673195040 30.2943307199118053
  0.8932165050754154  3.0095748751653169 26.1111699451083155
