Ti I  Ga S 
 1.0000000000000000
     3.7071256443489378    0.0000000000000000    0.0000000000000000
    -1.8535628221744689    3.2104649830269358    0.0000000000000000
     0.0000000000000000    0.0000000000000000   42.1333080575075414
 Ti  I   Ga  S  
   1   2   2   2
Cartesian
 -0.6140245379856161  1.5141613313590652 16.8143657812576208
  1.2395382841888525  2.5843163257013773 18.6287315661405408
  1.2395382841888525  2.5843163257013773 15.0000000000000000
  1.9716618423994672  1.4175339277852772 23.5605619109001942
  1.9716618423994672  1.4175339277852772 26.0392804721435489
  0.1180990202249986  2.4876889221275889 22.4665343255360419
  0.1180990202249986  2.4876889221275889 27.1333080575075414
