Mo Te Hg F 
 1.0000000000000000
     3.6032646162375643   -0.0000000000000000    0.0000000000000000
    -1.8016323081187799    3.1205186942193146    0.0000000000000000
     0.0000000000000002    0.0000000000000000   39.3050304466788489
 Mo  Te  Hg  F  
   1   2   1   2
Cartesian
  0.0162805207326142  0.9651970621338500 16.8050999999999995
  1.8179128288513970  2.0053699602069548 18.6101999999999990
  1.8179128288513970  2.0053699602069548 15.0000000000000000
  0.4420159865911683  0.8628724773248466 23.2763582943186336
  2.2436482947099412  1.9030453753979513 24.3050304466788489
  0.4420159865911669  2.9432182734710555 22.2476861419584466
