S  Ti S  Zn
 1.0000000000000000
     3.9202672994048924   -0.0000000000000000    0.0000000000000000
    -1.9601336474631272    3.3961525658400875    0.0000000000000000
     0.0000000000000000    0.0000000000000000   39.7959217145721453
 S   Ti  S   Zn 
   2   2   2   2
Cartesian
  1.3776788371125559  0.8799539185877855 15.0000000000000000
  1.3778901005204398  3.1434587428089418 18.2247483793411611
  1.3776102678463276  0.8799616415442574 17.4814467457056111
  1.3779586971879478  3.1434510233956634 15.7433429186812184
  1.1382291899514372  1.0418564263442647 21.6751790726690707
  1.1382999050959350  3.3057606708531715 24.7959217145721453
  1.1381022282856710  1.0419048836907336 24.2566391616784180
  1.1384268817957337  3.3057123426569226 22.2146074771483697
