Sn Se In S 
 1.0000000000000000
     3.9106720788146347   -0.0000000000000000    0.0000000000000000
    -1.9553360394073174    3.3867413661239740    0.0000000000000000
     0.0000000000000000    0.0000000000000000   40.2768605725572115
 Sn  Se  In  S  
   1   1   2   2
Cartesian
  1.9118456223145528  1.6490844097932915 16.5586206887278209
 -0.0434904170927643  2.7779981985012832 14.9999999999999982
  2.2364758145739665  1.3841259869922165 21.2801803333760517
  2.2364758145739665  1.3841259869922165 24.0991378416294566
  0.2811397751666496  2.5130397757002081 20.1024576024413903
  0.2811397751666496  2.5130397757002081 25.2768605725572115
