Ca I  Hg
 1.0000000000000000
     4.4206130248020710   -0.0000000000000011    0.0000000000000000
    -2.2103065111284965    3.8442620634687525    0.0000000000000000
     0.0000000000000034    0.0000000000000000   42.2886687718289451
 Ca  I   Hg 
   1   4   2
Cartesian
 -0.4349182222884263  1.4724345076821614 16.9490723290323331
  1.7753882905367890  2.7538551955050781 18.8981446580646448
  1.7753882905367886  2.7538551955050781 15.0000000000000000
  1.4278667898262511 -0.3758902594461838 21.3644370263322756
  1.4375466763404998  4.7145747625096091 27.2886687718289451
  1.4460651013791106  2.1553922219083077 25.6685564510713533
  1.4246937262444481  2.1794595779321644 22.9850952815851279
