Ti Br Pb O 
 1.0000000000000000
     3.4371289100319133    0.0000000000000000    0.0000000000000000
    -1.7185644550159567    2.9766409521695554    0.0000000000000000
     0.0000000000000000    0.0000000000000000   39.3844592967686182
 Ti  Br  Pb  O  
   1   2   1   2
Cartesian
 -0.5073309201399195  1.2887895081022809 16.6938534583278368
  1.2112335348760372  2.2810031588254658 18.3877069173080088
  1.2112335348760372  2.2810031588254658 15.0000000000000018
  0.4269353624007545  0.8760450029394020 23.3258401406239386
  2.1454998174167108  1.8682586536625869 24.3844592967686182
  0.4269353624007545  2.8604723043857718 22.2672209844792590
