Bi O  In S 
 1.0000000000000000
     3.9454292954133741    0.0000000000000000    0.0000000000000000
    -1.9727146477066870    3.4168419986633198    0.0000000000000000
     0.0000000000000000    0.0000000000000000   42.5677095163063228
 Bi  O   In  S  
   2   2   2   2
Cartesian
  2.1836533061636647  1.2180662937631161 15.1279491455499375
  2.1836533061636647  1.2180662937631161 18.2805653489927167
  0.2109386584569778  2.3570136266508892 15.0000000000000000
  0.2109386584569777  2.3570136266508892 18.4085143927414876
  2.3031442488939904  1.5390023570778770 23.5710292771251630
  2.3031442488939904  1.5390023570778770 26.3899867853785643
  0.3304296011873036  2.6779496899656503 22.3933065461905016
  0.3304296011873036  2.6779496899656503 27.5677095163063228
