Mg Cl Zr Se
 1.0000000000000000
     3.7338817994868059    0.0000000000000000    0.0000000000000000
    -1.8669408997434034    3.2336364930839272    0.0000000000000000
    -0.0000000000000000    0.0000000000000000   39.3153088280735616
 Mg  Cl  Zr  Se 
   1   2   1   2
Cartesian
  0.5206430695955655  0.7675628691289931 16.3729058647441299
  2.3875839693389684  1.8454417001569687 17.7458117294882669
  0.5206430695955658  2.9233205311849448 15.0000000000000000
  0.5797328751370353  0.7475965116777454 22.7347035229415368
  2.4466737748804377  1.8254753427057209 24.3153088280735616
  0.5797328751370350  2.9033541737336961 21.1540982178093842
