Pb Se Tl Se
 1.0000000000000000
     4.1502140427400205    0.0000000000000000    0.0000000000000000
    -2.0751070213700102    3.5941907921557652    0.0000000000000000
    -0.0000000000000000    0.0000000000000000   40.4672613790441389
 Pb  Se  Tl  Se 
   1   1   2   2
Cartesian
  2.1294833100340913  1.9909167435604953 16.5482420467416986
  0.0543762886640811  3.1889803409457498 14.9999999999999982
  2.2688488969782634  1.3880640573113840 21.2862625124385154
  2.2688488969782634  1.3880640573113840 24.1794312966013969
  0.1937418756082532  2.5861276546966385 19.9984324709997736
  0.1937418756082532  2.5861276546966385 25.4672613790441389
