Pb O  Ni Se
 1.0000000000000000
     3.5673307819114699   -0.0000000000000000    0.0000000000000000
    -1.7836653909557350    3.0893990808375378    0.0000000000000000
    -0.0000000000000000    0.0000000000000000   37.0826565913717374
 Pb  O   Ni  Se 
   1   1   1   2
Cartesian
  1.9794806454080236  1.0707629872483402 15.9428404019710115
  0.1958152544522890  2.1005626808608526 15.0000000000000000
  0.7949611726994601  0.1410032675365940 20.8373156473549273
  2.5786265636551948  1.1708029611491064 22.0826565913717303
  0.7949611726994599  2.2006026547616186 19.5919747038767653
