Ge Br Ge Br In Te In
 1.0000000000000000
     4.3142114082159999   -0.0506467540195987    0.0000000000000001
    -2.1133283865735466    3.7618330497208783    0.0000000000000001
     0.0000000000000025   -0.0000000000000000   44.1389246505602912
 Ge  Br  Ge  Br  In  Te  In 
   1   1   1   1   1   2   1
Cartesian
  2.7790787897295761  3.5415999711098993 17.3501422193768633
  0.6021733029514414  2.3189140515960891 20.3794909095427244
  0.6067871721498784  2.3212576666868969 18.0293662204716583
 -1.5351739755737919  3.5895126667313484 14.9999999999999982
  0.5480942537585723  2.4147197292484259 27.7643564600128272
  2.6906093272997698  1.1435032210431029 23.5811926676577670
  0.5188500600215392 -0.0765978250215027 29.1389246505602841
  0.5480434432694985  2.4149148887255727 24.9557638757568014
