Cr O  C  F 
 1.0000000000000000
     2.6150937897026427    0.0000000000000000    0.0000000000000000
    -1.3075468948513214    2.2647376551621141    0.0000000000000000
     0.0000000000000012    0.0000000000000021   39.4196163600238663
 Cr  O   C   F  
   1   2   2   2
Cartesian
 -0.4018742093796989  1.1996884495054712 16.1684397319200919
  0.9056726854716225  1.9546010012261759 17.3368794638401837
  0.9056726854716225  1.9546010012261759 15.0000000000000018
  1.0893188227567903  0.8487700239999595 22.5517661081685006
  1.0893188187604745  2.3585951274413688 23.0442486624421790
  1.0893188227567900  0.8487700239999593 21.1763984424389449
  1.0893188187604745  2.3585951274413688 24.4196163600238663
