Ti H  W  O 
 1.0000000000000000
     2.8121194104256539    0.0000000000000000    0.0000000000000000
    -1.4060597052128270    2.4353668479039343    0.0000000000000000
    -0.0000000000000000    0.0000000000000000   38.7359618865706139
 Ti  H   W   O  
   1   2   1   2
Cartesian
  0.4506375310190826  1.2362325381631938 16.1343963302347539
  1.8566972340245085  2.0480214906408909 17.2687926809326058
  1.8566972340245085  2.0480214906408909 15.0000000000000000
  0.3560472341803095  1.0089042782402831 22.4988248225824314
  1.7621069393931363  1.8206932275415948 23.7359618865706139
  1.7621069393931363  1.8206932275415948 21.2616877585942454
