Br Hg I  Zn
 1.0000000000000000
     4.1854481411864679    0.0010674728082268    0.0000000000000000
    -2.0904060241657838    3.6320016522870531    0.0000000000000000
     0.0000000000000049    0.0000000000000023   43.2826447350383603
 Br  Hg  I   Zn 
   2   2   2   2
Cartesian
  0.4700765428101108 -0.2695568660954925 15.0000000000000000
  0.4825430314102566  4.5514059951075918 20.7696522731609790
  0.4861275190336221  2.1271644081596266 19.2178916173209373
  0.4670484371143497  2.1543654087543747 16.5512692941072075
  0.5444141538376422  0.7693292181119568 22.9792947016018623
  0.5347496454477321  3.1803433590205943 28.2826447350383603
  2.6261361306632440  1.9674647353181376 26.8166884404973516
  2.6388263629827229  1.9837934720997219 24.4451439377166970
