Ti I  Sn Se
 1.0000000000000000
     3.8378666451907799   -0.0000000000000000    0.0000000000000000
    -1.9189333225953900    3.3236900110721743    0.0000000000000000
     0.0000000000000000    0.0000000000000000   39.0264997651626118
 Ti  I   Sn  Se 
   1   2   1   1
Cartesian
 -0.5043548832433972  1.3399824719097113 16.8143657812576173
  1.4145784393519927  2.4478791422671029 18.6287315661405373
  1.4145784393519927  2.4478791422671029 15.0000000000000000
  2.2093302562205634  1.3271622580720135 24.0264997651626118
  0.2903969336251740  2.4350589284294046 22.4678790764347909
