Ba Br Ba Cl
 1.0000000000000000
     4.6128807082248668    0.0000000000000000    0.0000000000000000
    -2.3064403541124334    3.9948718779498877    0.0000000000000000
     0.0000000000000000    0.0000000000000000   35.3663264561499204
 Ba  Br  Ba  Cl 
   1   2   1   2
Cartesian
  0.3114765336101746  1.5193566220161190 16.8371869788974422
  2.6179168877226076  2.8509805813327480 18.6743739577948844
  2.6179168877226076  2.8509805813327480 15.0000000000000018
  0.3432618324296031  1.7754859710754887 18.6743956723882860
  2.6497021865420365  3.1071099303921179 20.3663264561499204
  2.6497021865420365  3.1071099303921179 16.9824648886266552
