S  Cd Se Zr
 1.0000000000000000
     4.3204953299571507   -0.0000000000000000    0.0000000000000000
    -2.1602476625106393    3.7437313793747178    0.0000000000000000
    -0.0000000000000000    0.0000000000000000   40.4649131113258989
 S   Cd  Se  Zr 
   2   2   2   2
Cartesian
  1.3280337613087734  1.0570667434271033 15.0000000000000036
  1.3283537325796981  3.5516526020305634 18.2374084038473541
  1.3276610414641870  1.0571373308674636 17.8133498455626729
  1.3287266793345529  3.5515820371639921 15.4239508926595725
  1.5341429382901677  0.9313187495442268 21.8054860103675736
  1.5344230074860146  3.4266259434612416 25.4649131113258989
  1.5341408061416004  0.9312816994696969 24.5793820347775736
  1.5344251527533246  3.4266629708269072 22.6912367660533576
