Hg Se Sr Cl
 1.0000000000000000
     4.4633088562389727   -0.0000000000000000    0.0000000000000000
    -2.2316544281194863    3.8653388544390168    0.0000000000000000
     0.0000000000000000    0.0000000000000000  -36.7706248355407155
 Hg  Se  Sr  Cl 
   1   1   1   2
Cartesian
  3.0342812318663599  1.4835805860142188 -21.3766274532655451
  0.8026268037468739  2.7720268708272244 -21.7706248355407119
  0.5749242525174940  0.5409437644440114 -16.3963168240702473
  2.8065786806369810  1.8293900492570181 -14.9999999999999964
  0.5749242525174942  3.1178363340700246 -17.7926336481404945
