Hf Br Pb O 
 1.0000000000000000
     3.5465517276467668   -0.0000000000000000    0.0000000000000000
    -1.7732758638233834    3.0714038919776896    0.0000000000000000
    -0.0000000000000000    0.0000000000000000   38.5986875080630156
 Hf  Br  Pb  O  
   1   2   1   1
Cartesian
 -0.1135154019102720  1.2442199112791892 21.7499894683672821
  1.6597604619131117  2.2680212086050857 23.5986875080630085
  1.6597604619131117  2.2680212086050857 19.9012914182529030
  1.9805307832750345  1.7957798182155376 15.9428404019710115
  0.2072549194516516  2.8195811155414341 15.0000000000000000
