Al Se Cd Cl
 1.0000000000000000
     3.8386602932413800   -0.0000000000000000    0.0000000000000000
    -1.9193301466206902    3.3243773304456576    0.0000000000000000
    -0.0000000000000000    0.0000000000000000   41.7903099917181393
 Al  Se  Cd  Cl 
   2   2   1   2
Cartesian
  2.1261885610105495  1.4734772537709482 16.1674793328362725
  2.1261885610105495  1.4734772537709482 18.7553318157724647
  0.2068584143898595  2.5816030305861677 15.0000000000000018
  0.2068584143898595  2.5816030305861677 19.9228111486087727
  0.0885951555462087  0.5919908243839979 25.3524385751058503
  2.0079253021668979  1.7001166011992173 26.7903099917181464
  0.0885951555462088  2.8082423780144370 23.9145671584935826
