Ga Te Ga Se Ti
 1.0000000000000000
     4.0950887530855251    0.0000000000000000    0.0000000000000000
    -2.0475443782366085    3.5474157732808340    0.0000000000000000
     0.0000000000000000    0.0000000000000000   42.4435515985149650
 Ga  Te  Ga  Se  Ti 
   1   2   1   2   2
Cartesian
  0.5854347893417190  3.2207280939465588 18.7270307746498297
  2.6330288181749077  2.0382329457783031 15.0000000000000000
  0.5854240454940781  0.8557963412692113 19.9886537406659137
  0.5854737250405218  3.2207169483432110 16.2616350472053242
  1.3050278339604398  0.3063921043997800 23.8842201406476846
  1.3051374251226160  2.6707375119624657 27.4435515985149650
  1.3048307462385620  0.3064609094393502 26.5175382767163406
  1.3053345956997404  2.6706687340628488 24.8103047640624439
