Bi O  Ga Te
 1.0000000000000000
     4.0532699531266720   -0.0000000000000000    0.0000000000000000
    -2.0266349765633360    3.5102347478038585    0.0000000000000000
     0.0000000000000000    0.0000000000000000   42.4111877243249253
 Bi  O   Ga  Te 
   2   2   2   2
Cartesian
  2.2530753103294194  1.1864889803525684 15.1279491455499411
  2.2530753103294194  1.1864889803525684 18.2805653489927167
  0.2264403337660839  2.3565672296205209 15.0000000000000000
  0.2264403337660838  2.3565672296205209 18.4085143927414876
  2.3266905037600569  1.5592232629288199 23.6643188389053520
  2.3266905037600569  1.5592232629288199 26.1381422621466797
  0.3000555271967217  2.7293015121967721 22.3912733645218509
  0.3000555271967217  2.7293015121967721 27.4111877243249253
