Cd F  Pb O 
 1.0000000000000000
     3.4571612969433474   -0.0000000000000000    0.0000000000000000
    -1.7285806484716715    2.9939895081333008    0.0000000000000000
     0.0000000000000002   -0.0000000000000000   37.4507673601526108
 Cd  F   Pb  O  
   1   2   1   2
Cartesian
  0.6085740545868067  0.8940556770561937 21.4336056781234312
  2.3371547030584794  1.8920521797672940 22.4507673601526108
  0.6085740545868051  2.8900486824783944 20.4164439960942872
  0.8164124827678603  0.7252434395270883 16.0586191561446796
  2.5449931312395342  1.7232399422381883 17.1172383122893592
  0.8164124827678617  2.7212364449492883 15.0000000000000000
