Cd I  Hg I 
 1.0000000000000000
     4.3557419750367421   -0.0000000000000000    0.0000000000000000
    -2.1778709875183715    3.7721832027120223    0.0000000000000000
     0.0000000000000000    0.0000000000000000   40.4611074182660104
 Cd  I   Hg  I  
   1   2   1   2
Cartesian
 -0.1245437725176174  0.7659144286836994 16.7205164217779156
  2.0533272150007527  2.0233088295877071 18.4410328435558206
 -0.1245437725176176  3.2807032304917150 15.0000000000000000
  0.2046488300998537 -0.8025319265455917 23.7178569023561998
  2.3825198176182258  0.4548624743584160 25.4611074182660104
  0.2046488300998535  1.7122568752624239 21.9746063864463821
