Ti Te Ga S 
 1.0000000000000000
     3.6910536856494587    0.0000000000000000    0.0000000000000000
    -1.8455268428247293    3.1965462585046129    0.0000000000000000
     0.0000000000000000    0.0000000000000000   42.1157872916409417
 Ti  Te  Ga  S  
   1   2   2   2
Cartesian
 -0.6025300999967622  1.4093658821783401 16.7885301883608946
  1.2429967428279671  2.4748813016798779 18.5770603767261022
  1.2429967428279671  2.4748813016798779 15.0000000000000000
  2.0836779936718339  1.4335091363343682 23.5430411450335946
  2.0836779936718339  1.4335091363343682 26.0217597062769492
  0.2381511508471048  2.4990245558359061 22.4490135596694422
  0.2381511508471048  2.4990245558359061 27.1157872916409417
