Cl Cd Pt Te
 1.0000000000000000
     3.9739447014927141    0.0012519794577290    0.0000000000000000
    -1.9858791686433788    3.4485279642385596    0.0000000000000000
     0.0000000000000033    0.0000000000000000   41.8698922689646125
 Cl  Cd  Pt  Te 
   2   2   1   2
Cartesian
  1.1588365071941114 -0.3028354585986899 14.9999999999999964
  1.1713234611384233  4.2725054243795064 20.5111542448488677
  1.1716300128595323  1.9735836029400176 19.0920396605243425
  1.1585884855047912  1.9960846439790862 16.4189511839095843
  0.6680674458061617  0.2703532290622768 25.4826780394110983
  2.6554041905868444  1.4206972034469492 26.8698922689646054
  0.6687962338748137  2.5697891983738925 24.0954638108140671
