S  Ti Sn Se
 1.0000000000000000
     3.8913791972995497   -0.0000000000000000    0.0000000000000000
    -1.9456895975307864    3.3708789643272308    0.0000000000000000
    -0.0000000000000000    0.0000000000000000  -40.2110323645773349
 S   Ti  Sn  Se 
   2   2   1   2
Cartesian
  1.4185779513468968  1.1218998428028497 -18.2247483793411575
  1.4187876572377693  3.3685600412774463 -14.9999999999999982
  1.4185098873615085  1.1219075082863665 -15.7433016336355482
  1.4188557484225197  3.3685523793107555 -17.4814054606599427
  0.6959726331456725  0.2489234308153037 -23.6181013450030655
  2.6416622321684433  1.3725497522577141 -22.0251703254288600
  0.6959726338916647  2.4961760737001244 -25.2110323645773313
