Pb S  Se Ti
 1.0000000000000000
     3.9954061238826402   -0.0000000000000000    0.0000000000000000
    -1.9977030607869790    3.4610521198588762    0.0000000000000000
     0.0000000000000000    0.0000000000000000  -38.9336902098845457
 Pb  S   Se  Ti 
   1   1   2   2
Cartesian
  2.2365895968974638  1.2323529836963325 -22.4945263251456034
  0.2388865353409247  2.3860370236492909 -23.9336902098845457
  1.5329167821177727  1.3706741535890701 -18.5593314578672768
  1.5330237074832773  3.6774583615634442 -14.9999999999999964
  1.5327244919042537  1.3707412835347208 -15.9260133217986208
  1.5332160785351809  3.6773912580970105 -17.6332468344525175
