Cr Te Zr Cl
 1.0000000000000000
     3.4401412871512314    0.0000000000000000    0.0000000000000000
    -1.7200706435756157    2.9792497472806634    0.0000000000000000
     0.0000000000000000    0.0000000000000000   40.8264123818862430
 Cr  Te  Zr  Cl 
   1   2   1   2
Cartesian
  0.2517848998704905  1.4259935435496427 16.7062363127964844
  1.9718555434461060  2.4190767926431969 18.4124726255929652
  1.9718555434461060  2.4190767926431969 15.0000000000000000
  0.3705135748499898  1.3725017307771847 24.1185131619674458
  2.0905842184256054  2.3655849798707389 25.8264123818862394
  2.0905842184256054  2.3655849798707389 22.4106139420486379
