Mo S  Pd O 
 1.0000000000000000
     3.1389453567578585    0.0000000000000000    0.0000000000000000
    -1.5694726783789292    2.7184064200435127    0.0000000000000000
     0.0000000000000000    0.0000000000000000   39.0209500117063044
 Mo  S   Pd  O  
   1   2   1   2
Cartesian
 -0.4910002791861960  1.1709488139358046 16.5635563231757601
  1.0784723991927332  2.0770842872836424 18.1271126463515202
  1.0784723991927332  2.0770842872836424 15.0000000000000000
  0.5772012606345209  0.7720603491699463 23.0419298928741370
  2.1466739390134504  1.6781958225177838 24.0209500117063044
  0.5772012606345209  2.5843312958656215 22.0629097740419695
