Br Cu In Se In
 1.0000000000000000
     4.0186773941724425    0.0000000000000000    0.0000000000000000
    -2.0093386959573136    3.4810906952700620    0.0000000000000000
    -0.0000000000000000    0.0000000000000000   42.5788240623311651
 Br  Cu  In  Se  In 
   2   2   1   2   1
Cartesian
  1.1183206411999120  0.0154461611173377 15.0000000000000018
  1.1192545071180069  2.3352077617553295 18.6331282326220560
  1.1179673700191444  0.0156777244035455 17.4857902901367552
  1.1196056366359164  2.3349770390317048 16.1476785051133049
  0.7604924131033509  2.8697131185535976 26.3084083132122259
  2.7698392930748978  1.7089956327367923 22.2230960803531232
  0.7603418378586974  0.5487712860344780 27.5788240623311651
  0.7603500190191940  2.8699228864903374 23.4935040450412345
