Se Ir Pb O 
 1.0000000000000000
     3.4051680755210474   -0.0000000000000000    0.0000000000000000
    -1.7025840367871370    2.9538760428906654    0.0000000000000000
    -0.0000000000000000    0.0000000000000000   40.8173217691344092
 Se  Ir  Pb  O  
   2   2   1   2
Cartesian
  1.0678026379465140  0.6942403293260218 15.0000000000000000
  1.0675483176389204  2.6626730990162826 19.7747437366469114
  1.0674794680134463  0.6965789598554543 18.3902535308702610
  1.0678715898053932  2.6603324913783482 16.3845210824534178
  0.5975662017869150  0.0870800542893282 24.7587026129897296
  2.3001502398719005  1.0717054019195500 25.8173217691344092
  0.5975662024358395  2.0563307495497716 23.7000834568450500
