Hg Se Pb Te
 1.0000000000000000
     4.3938684375160983    0.0000000000000000    0.0000000000000000
    -2.1969342187580492    3.8052016877755710    0.0000000000000000
     0.0000000000000000    0.0000000000000000   35.6821508186691148
 Hg  Se  Pb  Te 
   1   1   1   1
Cartesian
  2.3810266791815557  1.4673446368701173 15.3939973822751703
  0.1840924604235072  2.7357451994619746 15.0000000000000036
  2.3878887494348224  1.3290037898170386 20.6821508186691148
  0.1909545306767733  2.5974043524088950 18.9976439366226373
