Cl Pt Mg Cl
 1.0000000000000000
     3.6521367419896640    0.0000000000000002    0.0000000000000000
    -1.8260683699576903    3.1634109468479319    0.0000000000000000
    -0.0000000000000002    0.0000000000000000   40.2025279687356516
 Cl  Pt  Mg  Cl 
   2   2   1   2
Cartesian
 -0.6595637602289570  1.7715206742962826 15.0000000000000000
  2.9914517467004207  1.7726888042418740 19.1833300419795165
  1.1662090965492391  0.7180905955579051 17.8345471777233797
  1.1664272310126158  2.8265966567567911 16.3507841280650084
  0.7672912397017770  0.2446166524992419 23.8296221039915146
  2.5933596110423234  1.2990869681152193 25.2025279687356516
  0.7672912403932055  2.3535572837311967 22.4567162392473847
