Al Te Al Ge F 
 1.0000000000000000
     4.1913133333638246   -0.0000000000000000    0.0000000000000000
    -2.0956566695189900    3.6296979948863561    0.0000000000000000
     0.0000000000000013    0.0000000000000023   43.0538407257639903
 Al  Te  Al  Ge  F  
   1   2   1   2   2
Cartesian
  0.6173962323334439  3.3469111392560320 26.7851970177217034
  2.7130977919042620  2.1370158578981777 22.9537948149769875
  0.6173706577532942  0.9270790575900724 28.0538407257639903
  0.6174155564501036  3.3468817697114956 24.2224067842122075
  1.7423634208786865  0.5076738927515598 16.7809067055787118
  1.7423634226481586  2.9274725560091297 17.3739865908562372
  1.7423634208786865  0.5076738927515593 15.0000000000000036
  1.7423634226481586  2.9274725560091306 19.1548933276439932
