S  Ir B  P 
 1.0000000000000000
     3.2475655116939381    0.0000000000000000    0.0000000000000000
    -1.6237827549103729    2.8127925952562580    0.0000000000000000
    -0.0000000000000000    0.0000000000000000   38.5476561638650423
 S   Ir  B   P  
   2   2   1   1
Cartesian
  1.2673372127708926  1.0207735498557282 18.8973623858448860
  1.2671905431597037  2.8961103569749298 23.5476561638650388
  1.2671486157709644  1.0211186513998496 22.2949878533904950
  1.2673793831320654  2.8957649924938949 20.1500468448592116
  0.5203375567246892  1.7641340198980693 15.0000000000000036
  2.1441203122594601  0.8265364881459835 15.0000000000000036
