Zr Br Ge S 
 1.0000000000000000
     3.5253150713148322   -0.0000000000000000    0.0000000000000000
    -1.7626575356574161    3.0530124081027941    0.0000000000000000
     0.0000000000000000    0.0000000000000000   38.9643386520636881
 Zr  Br  Ge  S  
   1   2   1   1
Cartesian
 -0.1024455348723501  1.2470571812075288 22.1381462295772486
  1.6602120007850658  2.2647279839084602 23.9643386520636881
  1.6602120007850658  2.2647279839084602 20.3119537990364378
  2.0197987707014153  1.7565760533260577 16.3610326690029382
  0.2571412350439999  2.7742468560269891 14.9999999999999982
