Hg Se Ge I 
 1.0000000000000000
     4.3821383866023265   -0.0000000000000000    0.0000000000000000
    -2.1910691933011637    3.7950431656965682    0.0000000000000000
     0.0000000000000000    0.0000000000000000   37.4780331464169620
 Hg  Se  Ge  I  
   1   1   1   2
Cartesian
  2.9175763666526899  1.5267920039204683 15.3939973822751686
  0.7265071733515273  2.7918063924859911 15.0000000000000018
  0.6120295084808259  0.5373203012937386 20.7332572524357168
  2.8030987017819893  1.8023346898592607 22.4780331464169620
  0.6120295084808257  3.0673490784247832 18.9884813584544645
