Pb S  In S 
 1.0000000000000000
     3.9318239741796859   -0.0000000000000000    0.0000000000000000
    -1.9659119870898429    3.4050594448482983    0.0000000000000000
    -0.0000000000000000    0.0000000000000000   40.1156568148375783
 Pb  S   In  S  
   1   1   2   2
Cartesian
  1.9617010665314862  1.5552715903711678 16.4391638847389423
 -0.0042109205583565  2.6902914053206004 15.0000000000000000
  2.2419586243497731  1.3638077577513745 21.1189765756564185
  2.2419586243497731  1.3638077577513745 23.9379340839098234
  0.2760466372599302  2.4988275727008076 19.9412538447217607
  0.2760466372599303  2.4988275727008076 25.1156568148375783
