Al S  Ti Te
 1.0000000000000000
     3.5960992596141326    0.0000000000000000    0.0000000000000000
    -1.7980496298070663    3.1143133133562495    0.0000000000000000
     0.0000000000000000    0.0000000000000000   44.5414691805254677
 Al  S   Ti  Te 
   2   2   2   2
Cartesian
  1.9814737912641347  1.2017893940398126 16.0691806254428968
  1.9814737912641347  1.2017893940398126 18.6673481735629530
  0.1834241614570687  2.2398938318252291 14.9999999999999982
  0.1834241614570687  2.2398938318252291 19.7365287990058320
  2.0439176166851132  1.3858836738679121 25.4471912780708109
  2.0439176166851132  1.3858836738679121 27.8263076568200631
  0.2458679868780468  2.4239881116533284 23.7320327430132068
  0.2458679868780468  2.4239881116533284 29.5414691805254677
