Bi O  Pb S 
 1.0000000000000000
     3.9121618516407000    0.0000000000000000    0.0000000000000000
    -1.9560809258203500    3.3880315472372140    0.0000000000000000
     0.0000000000000000    0.0000000000000000   34.8865436016815806
 Bi  O   Pb  S  
   2   2   1   2
Cartesian
  2.3241089789788583  1.3324563984988436 16.6059783544900306
  2.3241089789788583  1.3324563984988436 19.7585945579328097
  0.3680280531585082  2.4618002475779148 16.4780292089400930
  0.3680280531585082  2.4618002475779148 19.8865436016815806
  0.8142361835438527  0.0551801874741519 16.5419903580376335
  2.7703171093642025  1.1845240365532232 18.0839807160752670
  0.8142361835438527  2.3138678856322947 15.0000000000000000
