I  Cu Se Zr
 1.0000000000000000
     4.2512413789530443   -0.0000000000000000    0.0000000000000000
    -2.1256206870481451    3.6822899323292346    0.0000000000000000
    -0.0000000000000000    0.0000000000000000   40.7048581960939231
 I   Cu  Se  Zr 
   2   2   2   2
Cartesian
  1.2533293314378569  0.8633735497503041 15.0000000000000000
  1.2533293118005682  3.3182335169107602 18.8558029306400030
  1.2533293314378571  0.8633735497503043 17.6212990317599960
  1.2533293118005679  3.3182335169107597 16.2370991544799992
  1.3581744174017545  0.9074761724948732 22.0454310951355978
  1.3584499973210520  3.3618308328882698 25.7048581960939231
  1.3581723194297577  0.9074397304795123 24.8193271195455978
  1.3584521082015091  3.3618672525674600 22.9311818508213818
