In S  In S 
 1.0000000000000000
     3.9170122428173988    0.0000000000000000    0.0000000000000000
    -1.9585061214086994    3.3922321092145271    0.0000000000000000
     0.0000000000000000    0.0000000000000000   43.7684631285262711
 In  S   In  S  
   1   2   3   2
Cartesian
 -0.1296246625636694  2.9198494651520606 18.9926140749650472
  1.8288911535023233  1.7887802825229449 15.0000000000000000
 -0.1298364182334895  0.6582056706120195 20.1674250803514425
 -0.1298267291006554  2.9200605250100042 16.1748100312234691
  2.0795440730503856  1.5753378087861103 24.7717828893451113
  2.0795440730503856  1.5753378087861103 27.5907403975985162
  0.1210379516416865  2.7060818451909525 23.5940601584104535
  0.1210379516416865  2.7060818451909525 28.7684631285262711
