Ga Se Mg Br
 1.0000000000000000
     3.8539845934507149   -0.0000000000000000    0.0000000000000000
    -1.9269922967253574    3.3376485637221611    0.0000000000000000
     0.0000000000000000    0.0000000000000000   41.8226834990103242
 Ga  Se  Mg  Br 
   2   2   1   2
Cartesian
  2.1190646137951656  1.4951136902364388 16.1770728543176290
  2.1190646137951656  1.4951136902364388 18.6526280641098161
  0.1920723170698081  2.6076632114771594 15.0000000000000036
  0.1920723170698081  2.6076632114771594 19.8297009184262087
 -0.0344130260603343  0.7171374762319809 25.3156578505945618
  1.8925792706650215  1.8296869974727024 26.8226834990103242
 -0.0344130260603344  2.9422365187134236 23.8086322021787993
