Ti I  Cd Cl
 1.0000000000000000
     3.8342615957070088    0.0000000000000000    0.0000000000000000
    -1.9171307978535044    3.3205679466373277    0.0000000000000000
     0.0000000000000000    0.0000000000000000   40.2628103802653641
 Ti  I   Cd  Cl 
   1   2   1   2
Cartesian
 -0.3513146641386475  1.2396903142440914 16.8143657812576137
  1.5658161337148568  2.3465462964565340 18.6287315661405373
  1.5658161337148568  2.3465462964565340 14.9999999999999964
  0.4341947509765013  0.9010670630175948 23.8249389636530751
  2.3513255488300051  2.0079230452300374 25.2628103802653641
  0.4341947509765015  3.1147790274424807 22.3870675470408003
