Br Cu Si F 
 1.0000000000000000
     3.9484756606736742    0.0000000000000000    0.0000000000000000
    -1.9742378292055527    3.4202942106692977    0.0000000000000000
     0.0000000000000013    0.0000000000000022   40.9686409030814929
 Br  Cu  Si  F  
   2   2   2   2
Cartesian
  1.2646129370655685  0.7777336889384562 14.9999999999999982
  1.2655304894205934  3.0569811626040426 18.6331282326220489
  1.2642658371314224  0.7779612080227182 17.4857902901367517
  1.2658754851043013  3.0567544694021227 16.1476785051133049
  1.1098711930265037  0.8727519838747674 23.6223848072205982
  1.1098711918167332  3.1529481243209654 24.3262118676409216
  1.1098711930265037  0.8727519838747669 21.9799557717810430
  1.1098711918167332  3.1529481243209663 25.9686409030814929
