S  Zr Zn I 
 1.0000000000000000
     4.1476098641328818    0.0000000000000000    0.0000000000000000
    -2.0738049308682229    3.5924372413668184    0.0000000000000000
    -0.0000000000000000    0.0000000000000000   35.4168703536983998
 S   Zr  Zn  I  
   2   2   1   2
Cartesian
  1.2970005358159185  1.0353050181822105 15.0000000000000018
  1.2972824841717743  3.4298123331657102 18.3278617161116202
  1.2970699484948300  1.0352234323973033 17.6238086027417182
  1.2972130606243735  3.4298939218796551 15.7040911197024702
  0.7449325865240246  0.0871041468692725 18.7894645851860176
  2.8187375189898711  1.2845832273248785 20.4168703536983998
  0.7449325873228362  2.4820623077804846 17.1620588166736283
