Sn Te S  Zr
 1.0000000000000000
     4.1840506544866631   -0.0000000000000000    0.0000000000000000
    -2.0920253260451132    3.6239958915471755    0.0000000000000000
     0.0000000000000000    0.0000000000000000  -38.8076577118804451
 Sn  Te  S   Zr 
   1   1   2   2
Cartesian
  2.5985534980097795  1.2785576518935895 -22.1214971613158085
  0.5065281711658540  2.4865562824093144 -23.8076577118804451
  1.3355619885109116  1.3902582798437697 -18.3278617161116237
  1.3358464140505335  3.8058007343803602 -15.0000000000000036
  1.3356320110477808  1.3901759773484308 -15.7040531133699055
  1.3357763805496847  3.8058830398304675 -17.6237705964091553
