Al Se Hg F 
 1.0000000000000000
     3.7184290382825074   -0.0000000000000000    0.0000000000000000
    -1.8592145191412517    3.2202540093223879    0.0000000000000000
     0.0000000000000002    0.0000000000000000   40.8828504254155547
 Al  Se  Hg  F  
   2   2   1   2
Cartesian
  1.8430503200901478  1.4928147591921470 16.1674793328362689
  1.8430503200901478  1.4928147591921470 18.7553318157724647
 -0.0161641990511052  2.5662327622996099 15.0000000000000000
 -0.0161641990511052  2.5662327622996099 19.9228111486087727
 -0.4424471185225978  1.1829235494236836 24.8541782730553393
  1.4167674006186459  2.2563415525311461 25.8828504254155547
 -0.4424471185225994  3.3297595556386086 23.8255061206951524
