Cr Te Sn O 
 1.0000000000000000
     3.4063931912249128   -0.0000000000000000    0.0000000000000000
    -1.7031965956124564    2.9500230388791175    0.0000000000000000
     0.0000000000000000    0.0000000000000000  -38.3743485236782789
 Cr  Te  Sn  O  
   1   2   1   1
Cartesian
 -0.1120675106915118  1.2231412507498538 -16.7062363127964808
  1.5911290849209445  2.2064822637095594 -14.9999999999999982
  1.5911290849209445  2.2064822637095594 -18.4124726255929616
  1.9741564764366490  1.7121654428073521 -22.3629549050601391
  0.2709598808241925  2.6955064557670578 -23.3743485236782789
