Pt O  Al N 
 1.0000000000000000
     3.1412177830192136    0.0000000000000000    0.0000000000000000
    -1.5706088915096068    2.7203743989140734    0.0000000000000000
     0.0000000000000000    0.0000000000000000   35.8370951416953503
 Pt  O   Al  N  
   1   2   1   1
Cartesian
  0.7752040960619615  0.0099162749188493 15.9429177774534718
  2.3458129875715681  0.9167077412235406 16.8858355549069401
  0.7752040960619615  1.8234992075282319 15.0000000000000000
  0.1498576014058338  1.8558051447718051 20.8370951416953503
  1.7204664929154410  0.9490136784671143 20.8370951416953503
