Te Zn Cd I 
 1.0000000000000000
     4.3268611291525634   -0.0000000000000000    0.0000000000000000
    -2.1634305633397863    3.7476971904717016    0.0000000000000000
    -0.0000000000000000    0.0000000000000000   41.1615101171359896
 Te  Zn  Cd  I  
   2   2   1   2
Cartesian
  1.2016668740277074  0.8569407314068840 14.9999999999999982
  1.2017739801986689  3.3551265311624223 18.7597473661473515
  1.2015327026934617  0.8570271810760288 17.8109584950062683
  1.2019079208342911  3.3550397176051603 15.9491402070049269
  0.9165867212365444  0.3747991373678162 24.4409936953580811
  3.0800172862249910  1.6240315341917166 26.1615101171359896
  0.9165867220608748  2.8732639310156176 22.7204772735801654
