W  S  Zr O 
 1.0000000000000000
     3.2273811780763015    0.0000000000000000    0.0000000000000000
    -1.6136905890381508    2.7949940879098265    0.0000000000000000
     0.0000000000000000    0.0000000000000000   38.9774749212923624
 W   S   Zr  O  
   1   2   1   2
Cartesian
 -0.5730242943850298  1.1289795954680981 16.5727974379861855
  1.0406662946531207  2.0606442914380403 18.1455948759723711
  1.0406662946531207  2.0606442914380403 15.0000000000000000
  0.5178865274750446  0.8624333083735609 23.0161429488607858
  2.1315771165131951  1.7940980043435031 23.9774749212923624
  0.5178865274750446  2.7257627003134450 22.0548109764292057
