Hg Se I  Hg
 1.0000000000000000
     4.4596933304980748   -0.0000000000000011    0.0000000000000000
    -2.2298466639764980    3.8781066009891534    0.0000000000000000
     0.0000000000000032    0.0000000000000000   39.7539624777635439
 Hg  Se  I   Hg 
   1   1   2   2
Cartesian
  2.3576800719497446  1.6920063428031471 15.3939973822751650
  0.1278334071248877  2.9847085431328653 15.0000000000000000
  1.7183339204281416 -0.2550874840541518 18.8297307322668743
  1.7280993816932468  4.8801935342066418 24.7539624777635439
  1.7366931136374371  2.2984801806464596 23.1338501570059520
  1.7151328054590922  2.3227594235085487 20.4503889875197302
