Sn O  F  Pt
 1.0000000000000000
     3.3673199469788209    0.0000585085648160    0.0000000000000000
    -1.6836092421986724    2.9163396568505737    0.0000000000000000
     0.0000000000000012    0.0000000000000000  -37.5486815429721545
 Sn  O   F   Pt 
   1   1   2   2
Cartesian
  2.2084030077649732  1.7938112049140993 -21.5372879243540076
  0.5247599447058087  2.7659049210093523 -22.5486815429721474
 -0.7003075567208068  1.7113326983398993 -18.7933056562285863
  2.6667875852310305  1.7120334115476075 -14.9999999999999929
  0.9831838860765991  0.7396076875213724 -16.1388890336530011
  0.9833180990083121  2.6836831159146035 -17.6543802867765116
