Ge Se Zr Se
 1.0000000000000000
     3.7305269094657971    0.0000000000000000    0.0000000000000000
    -1.8652634547328986    3.2307310730988306    0.0000000000000000
    -0.0000000000000000    0.0000000000000000   38.2028033285845652
 Ge  Se  Zr  Se 
   1   1   1   2
Cartesian
  2.1561692349391808  1.5589033242505443 16.4473597337136077
  0.2909057802062828  2.6358136819501548 14.9999999999999964
  0.7033097467289046  0.3925683163246685 21.6221980234525404
  2.5685732014618026  1.4694786740242785 23.2028033285845652
  0.7033097467289046  2.5463890317238889 20.0415927183203877
