I  Cu Cd I 
 1.0000000000000000
     4.2506821614704933   -0.0000000000000000    0.0000000000000000
    -2.1253410795422658    3.6811987331804890    0.0000000000000000
     0.0000000000000000    0.0000000000000000   41.1720712256851940
 I   Cu  Cd  I  
   2   2   1   2
Cartesian
  1.1974487295155163  0.7727045449476511 15.0000000000000036
  1.1974487090574264  3.2268370460053064 18.8558029306400030
  1.1974487295155165  0.7727045449476514 17.6212990317600031
  1.1974487090574262  3.2268370460053060 16.2370991544799992
  0.6489277941160825 -0.0493295433535551 24.4515548039072925
  2.7742688752489890  1.1777367010399411 26.1720712256852011
  0.6489277949114031  2.4048029454334374 22.7310383821293769
