Pb S  Zn Br
 1.0000000000000000
     3.8230534119164670    0.0000000000000000    0.0000000000000000
    -1.9115267059582339    3.3108613747444342    0.0000000000000000
     0.0000000000000000    0.0000000000000000   39.3462039626445090
 Pb  S   Zn  Br 
   1   2   1   2
Cartesian
  0.6906808147164141  0.8255783381649422 16.5419903580376300
  2.6022075206746473  1.9291987964130870 18.0839807160752635
  0.6906808147164138  3.0328192546612316 14.9999999999999964
  0.7482977358562446  1.0216166316089850 22.8636053573128919
  2.6598244418144765  2.1252370898571296 24.3462039626445090
  0.7482977358562446  3.2288575481052737 21.3810067519812890
