Cl Pt Hg F 
 1.0000000000000000
     3.6452423440318791    0.0000000000000002    0.0000000000000000
    -1.8226211709787954    3.1574402230726886    0.0000000000000000
    -0.0000000000000000    0.0000000000000000   39.5238217398660652
 Cl  Pt  Hg  F  
   2   2   1   2
Cartesian
 -0.7586452089953440  1.9001006872977642 15.0000000000000036
  2.8854780166113194  1.9012666124772482 19.1833300419795201
  1.0636810066664852  0.8486588864411925 17.8345471777233833
  1.0638987293432467  2.9531852853447353 16.3507841280650119
  0.6705431828857189  0.3598540265699280 23.4951495875058498
  2.4931643552473632  1.4123341009274908 24.5238217398660652
  0.6705431835771456  2.4648141752850536 22.4664774351456629
