Se Zn Hg Cl
 1.0000000000000000
     4.0346545718146141    0.0000000000000000    0.0000000000000000
    -2.0173272847433652    3.4942766298844252    0.0000000000000000
     0.0000000000000000    0.0000000000000000   40.2716966411050805
 Se  Zn  Hg  Cl 
   2   2   1   2
Cartesian
  1.2332935557133458  0.7542904810182919 15.0000000000000000
  1.2333977969774250  3.0836761860851136 18.4133035906909797
  1.2331939999094996  0.7543448196179874 17.6556971816099164
  1.2334973236740123  3.0836218455218094 15.7579816020882362
  0.8097323103999368  0.2014661840726771 23.8120923525207431
  2.8270595966952272  1.3662250607008195 25.2716966411050876
  0.8097323111758987  2.5309839373289615 22.3524880639364198
