Ga Se Hf Se
 1.0000000000000000
     3.7985178441715330   -0.0000000000000000    0.0000000000000000
    -1.8992589220857665    3.2896129497810476    0.0000000000000000
     0.0000000000000000    0.0000000000000000   41.9614709423120331
 Ga  Se  Hf  Se 
   2   2   1   2
Cartesian
  2.0907633565551524  1.4765969545655249 16.1770728543176254
  2.0907633565551524  1.4765969545655249 18.6526280641098126
  0.1915044344693862  2.5731346044925405 15.0000000000000000
  0.1915044344693862  2.5731346044925405 19.8297009184262052
 -0.0362623381975407  0.7083310256409433 25.3855819215325305
  1.8629965838882254  1.8048686755679590 26.9614709423120331
 -0.0362623381975409  2.9014063254949751 23.8096929007553548
