Zr Te Br Cu
 1.0000000000000000
     3.9375849142217039    0.0000000000000000    0.0000000000000000
    -1.9687924559819445    3.4108625475768424    0.0000000000000000
     0.0000000000000000    0.0000000000000000  -40.9636640084537618
 Zr  Te  Br  Cu 
   1   2   2   2
Cartesian
 -0.4949736687840615  1.5938041139240049 -24.1020994463795475
  1.4738187887030929  2.7307582964496189 -22.2405348843051556
  1.4738187887030929  2.7307582964496189 -25.9636640084537547
  1.3749074121507026  1.0066056514427963 -18.6331282326220524
  1.3758224336991687  3.2795679657180332 -15.0000000000000000
  1.3745612695929470  1.0068325431297591 -16.1473379424853007
  1.3761664778104619  3.2793418976359932 -17.4854497275087475
