Sn Se S  Ti
 1.0000000000000000
     3.9123634540671350   -0.0000000000000000    0.0000000000000000
    -1.9561817259145791    3.3890518637674951    0.0000000000000000
    -0.0000000000000000    0.0000000000000000  -38.4959113616145814
 Sn  Se  S   Ti 
   1   1   2   2
Cartesian
  2.2626724963096243  1.9041196992132152 -21.9372906728867569
  0.3064907696490530  3.0338036538023800 -23.4959113616145778
  1.4662997082342728  0.6477971231429500 -18.2247483793411575
  1.4665105449598408  2.9065693939569552 -14.9999999999999964
  1.4662312772139403  0.6478048299522047 -15.7433016336355465
  1.4665790033262078  2.9065616906834864 -17.4814054606599392
