Hf Br Mo Te
 1.0000000000000000
     3.5237909415916757    0.0000000000000000    0.0000000000000000
    -1.7618954707958379    3.0516924730438779    0.0000000000000000
     0.0000000000000000    0.0000000000000000   41.3047344069804296
 Hf  Br  Mo  Te 
   1   2   1   2
Cartesian
  0.1651084268253529  1.2253035628852196 16.8486980501143790
  1.9270038976211905  2.2425343872331789 18.6973960898101055
  1.9270038976211905  2.2425343872331789 15.0000000000000018
  0.2342586241199444  1.3761933348595050 24.4996344069804266
  1.9961540949157821  2.3934241592074641 26.3047344069804296
  1.9961540949157821  2.3934241592074641 22.6945344069804307
