Si F  Se Ti
 1.0000000000000000
     3.9930012934717505    0.0000000000000000    0.0000000000000000
    -1.9965006455791570    3.4589694756301261    0.0000000000000000
    -0.0000000000000013   -0.0000000000000022  -40.8544665862234311
 Si  F   Se  Ti 
   2   2   2   2
Cartesian
  0.8569673874014371  0.8901542838653370 -24.2120375507838794
  0.8569673861864754  3.1961339342854198 -23.5082104903635525
  0.8569673874014371  0.8901542838653365 -25.8544665862234311
  0.8569673861864754  3.1961339342854203 -21.8657814549229812
  1.4910182800014149  1.0357912651229206 -18.5593314578672803
  1.4911251410107109  3.3411873949489936 -15.0000000000000000
  1.4908261055271574  1.0358583546739781 -15.9260133217986279
  1.4913173962746966  3.3411203318612204 -17.6332468344525211
