Cd Cl Sn Se
 1.0000000000000000
     3.8822202232784369   -0.0000000000000000    0.0000000000000000
    -1.9411101116392184    3.3621013364448213    0.0000000000000000
     0.0000000000000000    0.0000000000000000   39.3546213037337012
 Cd  Cl  Sn  Se 
   1   2   1   2
Cartesian
  0.6399497215286749  0.7232075037478851 16.4378714166122712
  2.5810598331678927  1.8439079492294923 17.8757428332245638
  0.6399497215286751  2.9646083947110999 15.0000000000000000
  0.5504604518932171  0.6190615797497739 22.7616902841594957
  2.4915705635324352  1.7397620252313810 24.3546213037337012
  0.5504604518932171  2.8604624707129886 21.1687592645852298
