Sn I  Cd
 1.0000000000000000
     4.4102178092968618    0.0008383076656587    0.0000000000000000
    -2.2043769249314824    3.8266157314274327    0.0000000000000000
     0.0000000000000033    0.0000000000000000   42.3953507543595336
 Sn  I   Cd 
   1   4   2
Cartesian
 -0.4946592398382240  1.4879815077256808 17.0138547965808051
  1.7106936580491900  2.7640789566452639 19.0277095931616067
  1.7106936580491896  2.7640789566452639 15.0000000000000000
  1.3745613515172699 -0.3735604310955588 21.4851430994718342
  1.3862165909779645  4.6969049478746800 27.3953507543595336
  1.3914543239617578  2.1482532734165658 25.7837851557365738
  1.3724317815591189  2.1728823913702220 23.0967608626707737
