Ba I  Sb Se Sb
 1.0000000000000000
     4.8690696097593298    0.0000000000000000    0.0000000000000000
    -2.4345348048796649    4.2168334374563372    0.0000000000000000
    -0.0000000000000000    0.0000000000000000   41.5648738167713603
 Ba  I   Sb  Se  Sb 
   1   2   1   2   1
Cartesian
  0.3732146087980346  1.0210138036198793 17.0447426683638170
  2.8077494136776999  2.4266249494386587 19.0894853367277690
  2.8077494136776999  2.4266249494386587 15.0000000000000000
  0.6612480694830838  3.7895382219427658 26.2695882800325258
  3.1001152711486988  2.3887739787061646 23.0779236973288420
  0.6604238703477664  0.9786375126840082 26.5648738167713532
  0.6647243916040309  3.7945310697422130 23.3731164826452087
