Ba Cl I  Au
 1.0000000000000000
     4.8029028137061847   -0.0000000000000000    0.0000000000000000
    -2.4014514068530914    4.1596700783735692    0.0000000000000000
     0.0000000000000000    0.0000000000000000   36.6982463764234126
 Ba  Cl  I   Au 
   1   2   1   1
Cartesian
  0.8360711503857086  1.6098348517434624 16.3845503996444748
  3.2375225572387998  2.9963915445346530 17.7691007992889780
  0.8360711503857092  4.3829482373258433 15.0000000000000000
  0.7907350802224978  0.8602757048208323 21.6982463764234197
  3.1921864870755909  2.2470461569494153 21.6982463764234197
