Pb Se Hg Br
 1.0000000000000000
     4.1105089526936709    0.0000000000000000    0.0000000000000000
    -2.0552544763468354    3.5598051755160780    0.0000000000000000
    -0.0000000000000000    0.0000000000000000   38.1603905391166265
 Pb  Se  Hg  Br 
   1   1   1   2
Cartesian
  2.2947222610461830  1.4038029489185286 16.5482420467417022
  0.2394677846993480  2.5904046740905535 15.0000000000000000
  0.7311978135004904  0.3614270788496645 21.5709829629858234
  2.7864522898473245  1.5480288040216905 23.1603905391166265
  0.7311978135004901  2.7346305291937165 19.9815753868550274
