Ge Se Al S 
 1.0000000000000000
     3.6251105741431813    0.0000000000000000    0.0000000000000000
    -1.8125552870715906    3.1394378487355863    0.0000000000000000
    -0.0000000000000000    0.0000000000000000   39.7675489567320639
 Ge  Se  Al  S  
   1   1   2   2
Cartesian
  1.7740054691482483  1.5165611825403822 16.4473597337136113
 -0.0385498179233418  2.5630404654522443 15.0000000000000000
  1.9638118879739888  1.1947113533686795 21.1002007831691287
  1.9638118879739888  1.1947113533686795 23.6983683312891813
  0.1512566009023986  2.2411906362805416 20.0310201577262283
  0.1512566009023986  2.2411906362805416 24.7675489567320639
