Ge F  S  Zr
 1.0000000000000000
     4.2228275815602831   -0.0000000000000000    0.0000000000000000
    -2.1114137895819232    3.6575776954743295    0.0000000000000000
    -0.0000000000000012   -0.0000000000000022  -40.7687529027168836
 Ge  F   S   Zr 
   2   2   2   2
Cartesian
  1.5278742566013803  1.1515866360163725 -23.9878461971381753
  1.5278742610885758  3.5899717663325910 -23.3947663118606535
  1.5278742566013803  1.1515866360163720 -25.7687529027168871
  1.5278742610885758  3.5899717663325914 -21.6138595750728975
  1.2951901565544410  1.0121353150187862 -18.3278617161116273
  1.2954772180844818  3.4500614243699883 -15.0000000000000071
  1.2952608280458833  1.0120522498663296 -15.7040531133699091
  1.2954065355274478  3.4501444925045939 -17.6237705964091589
