Pt O  Zr O 
 1.0000000000000000
     3.2083307876780873    0.0000000000000000    0.0000000000000000
    -1.6041653938390437    2.7784959658729615    0.0000000000000000
     0.0000000000000000    0.0000000000000000   37.4755418972624881
 Pt  O   Zr  O  
   1   2   1   2
Cartesian
  0.4458652652967433  0.7307505812081226 15.9429177774534701
  2.0500306591357864  1.6569159031657765 16.8858355549069401
  0.4458652652967433  2.5830812251234305 15.0000000000000000
  0.5761441575908561  0.4214007912335596 21.5142099248309115
  2.1803095514298994  1.3475661131912133 22.4755418972624916
  0.5761441575908561  2.2737314351488673 20.5528779523993350
