Zn F  Ga N 
 1.0000000000000000
     3.2066424731743419    0.0000000000000000    0.0000000000000000
    -1.6033212365871710    2.7770338426231405    0.0000000000000000
     0.0000000000000000    0.0000000000000000   35.9839652004350157
 Zn  F   Ga  N  
   1   2   1   1
Cartesian
  0.5286329083401289  0.3531344008667132 19.9881982960905304
  2.1319541449272994  1.2788123484077596 20.9839652004350157
  0.5286329083401291  2.2044902959488062 18.9924313917460275
  0.7528824944445600  2.0895010255054309 15.0000000000000018
  2.3562037310317310  1.1638230779643843 15.0000000000000018
