Sr Br S  Cd
 1.0000000000000000
     4.3521672930450306   -0.0000000000000000    0.0000000000000000
    -2.1760836452899750    3.7705532013939287    0.0000000000000000
     0.0000000000000000    0.0000000000000000   40.3931564778389003
 Sr  Br  S   Cd 
   1   2   2   2
Cartesian
 -0.7294675710076918  1.5914151024255410 16.8028165994893754
  1.4466160759256703  2.8482661695568505 18.6056331989787509
  1.4466160759256703  2.8482661695568505 15.0000000000000000
  1.2647858707515471  0.7546642791684735 22.1557480739915462
  1.2651081867789955  3.2671225039036833 25.3931564778389003
  1.2644104186347649  0.7547353723298832 24.9690979195542155
  1.2654838674694417  3.2670514334777914 22.5796989666511152
