Sn Te Pt Te
 1.0000000000000000
     4.0942985298331980   -0.0000000000000000    0.0000000000000000
    -2.0471492649165990    3.5457665375128293    0.0000000000000000
    -0.0000000000000000    0.0000000000000000   37.8603201043772799
 Sn  Te  Pt  Te 
   1   1   1   2
Cartesian
  2.3037941559358646  1.3601476017898984 16.6861605505646402
  0.2566448910192652  2.5420697809608415 15.0000000000000000
  0.6985469914286829  0.3607560048740833 21.4731058748237693
  2.7456962563452816  1.5426781840450263 22.8603201043772799
  0.6985469914286829  2.7246003632159694 20.0858916462267416
