Zr I  S  Ti
 1.0000000000000000
     3.8734894313147596   -0.0000000000000000    0.0000000000000000
    -1.9367447145383916    3.3553859725166442    0.0000000000000000
     0.0000000000000000    0.0000000000000000   40.6977639200799928
 Zr  I   S   Ti 
   1   2   2   2
Cartesian
 -0.3257681972341882  1.3579811342048203 16.9391452359630961
  1.6109765187961880  2.4764431250437018 18.8782904725522265
  1.6109765187961880  2.4764431250437018 15.0000000000000000
  1.2803730780604909  0.7542137642918734 22.4730155407388317
  1.2805818198777583  2.9905480245098630 25.6977639200799928
  1.2803053269844105  0.7542213945438452 24.9544622864444428
  1.2806495980281580  2.9905403977585534 23.2163584594200501
