W  S  Ga O 
 1.0000000000000000
     3.1594244390317718    0.0000000000000000    0.0000000000000000
    -1.5797122195158859    2.7361418255389136    0.0000000000000000
     0.0000000000000000    0.0000000000000000   41.0357770985402155
 W   S   Ga  O  
   1   2   2   2
Cartesian
 -0.5821666010233072  1.2469902913225566 16.5727974379861855
  0.9975456184925785  2.1590375665021941 18.1455948759723711
  0.9975456184925785  2.1590375665021941 15.0000000000000000
  1.6012327818567507  1.2422385930681528 22.7733174550294706
  1.6012327818567507  1.2422385930681528 25.2866031710881849
  0.0215205623408648  2.1542858682477908 22.0241435275774151
  0.0215205623408648  2.1542858682477908 26.0357770985402155
