Cr Te In O 
 1.0000000000000000
     3.4552243442934527    0.0000000000000000    0.0000000000000000
    -1.7276121721467264    2.9923120579325597    0.0000000000000000
     0.0000000000000000    0.0000000000000000   41.7540612286134873
 Cr  Te  In  O  
   1   2   2   2
Cartesian
 -0.6584653647057518  1.4936357875141315 16.7062363127964844
  1.0691468074409745  2.4910731401583179 18.4124726255929687
  1.0691468074409745  2.4910731401583179 15.0000000000000000
  1.9626805667675693  1.3800592083465364 23.1131264089598716
  1.9626805667675693  1.3800592083465364 25.9633916065811476
  0.2350683946208429  2.3774965609907230 22.3224567839406660
  0.2350683946208429  2.3774965609907230 26.7540612286134873
