I  Pt Bi O 
 1.0000000000000000
     3.9695146741408509    0.0000237985287992    0.0000000000000000
    -1.9847367183664784    3.4377333518398410    0.0000000000000000
    -0.0000000000000002   -0.0000000000000000   41.4067190456769936
 I   Pt  Bi  O  
   2   2   2   2
Cartesian
 -0.6569772540221065  2.1071793160634513 15.0000000000000000
  3.3123832084993592  2.1073744306859830 19.3964869774338879
  1.3275455974129460  0.9612939891060641 17.9075952834741194
  1.3275927847428077  3.2530889048452556 16.4880841189940028
  2.2504138287839996  1.1287621841280595 23.1261537984854435
  2.2504138287839996  1.1287621841280595 26.2787700019282227
  0.2656633646148894  2.2746653685650733 22.9982046529355024
  0.2656633646148894  2.2746653685650733 26.4067190456769936
