Pb Se Br Cu
 1.0000000000000000
     4.0152150805813385    0.0000000000000000    0.0000000000000000
    -2.0076075391617616    3.4780922437442898    0.0000000000000000
     0.0000000000000000    0.0000000000000000  -38.9196381432005296
 Pb  Se  Br  Cu 
   1   1   2   2
Cartesian
  2.7484561768263140  1.2021391092569225 -22.3713960964588310
  0.7408486369119475  2.3615031905050188 -23.9196381432005332
  1.3372014546756592  1.0271319777130532 -18.6331282326220524
  1.3381345160170892  3.3448954423299666 -15.0000000000000000
  1.3368484878576186  1.0273633415412895 -16.1473379424853007
  1.3384853430174330  3.3446649183402917 -17.4854497275087475
