Ca I  Hg I 
 1.0000000000000000
     4.4679536556597741   -0.0000000000000000    0.0000000000000000
    -2.2339768278298875    3.8693613687329145    0.0000000000000000
     0.0000000000000000    0.0000000000000000   40.0190117112997683
 Ca  I   Hg  I  
   1   2   1   2
Cartesian
  0.6156170078019811  0.8419323580188116 16.7686769096983141
  2.8495938356318677  2.1317194809297835 18.5373538193965857
  0.6156170078019807  3.4215066038407551 15.0000000000000018
  0.6202513940240624  0.9859639623787776 23.2757611953899541
  2.8542282218539503  2.2757510852897491 25.0190117112997683
  0.6202513940240622  3.5655382082007208 21.5325106794801329
