S  Cd I  In
 1.0000000000000000
     4.3971070955312452   -0.0000000000000000    0.0000000000000000
    -2.1985535452539251    3.8109362901470520    0.0000000000000000
     0.0000000000000000    0.0000000000000000   43.1559485645093162
 S   Cd  I   In 
   2   2   2   2
Cartesian
  1.0784860275460550  0.9695166347685427 15.0000000000000018
  1.0788116726025356  3.5088835962483995 18.2374084038473541
  1.0781066985691408  0.9695884893464590 17.8133498455626729
  1.0791912325133302  3.5088117646495007 15.4239508926595708
  1.3328287449750542  1.0870395724996280 21.8034839916296761
  1.3328883494296082  3.6271101298197381 28.1559485645093162
  1.3321078002940063  1.0874737955718423 26.2972741650429782
  1.3336094266174248  3.6266763574380709 23.6629669928299080
