Hf O  Si S 
 1.0000000000000000
     3.2796152507435026   -0.0000000000000001    0.0000000000000000
    -1.6396268846139255    2.8405269853157415    0.0000000000000000
     0.0000000000000012    0.0000000000000020   38.5889362663177238
 Hf  O   Si  S  
   1   2   1   2
Cartesian
 -0.6140595541109071  0.6183341217777093 15.9724295917334569
  1.0258083181801194  1.5651764502162897 16.9448591834669173
 -0.6139390602723566  2.5120187786548702 15.0000000000000000
  2.5002678331434827  0.8057531476278001 22.2632562205964035
  0.8608467115072918  1.7528565219469718 20.9370343128233856
 -0.7792930648584406  2.7000718247832225 23.5889362663177238
