Cl Ag S  Cd
 1.0000000000000000
     4.3578908272177790    0.0000000000000000    0.0000000000000000
    -2.1789454111195932    3.7835805780919500    0.0000000000000000
    -0.0000000000000000    0.0000000000000000   40.2131272469517995
 Cl  Ag  S   Cd 
   2   2   2   2
Cartesian
  1.3589511677860338  0.9518714829084157 15.0000000000000000
  1.3544830171990085  3.4690602709966671 18.2868565417185991
  1.3544241547538354  0.9540144045635492 17.9775021923323379
  1.3590455036327109  3.4668987622792362 15.3080484603362663
  1.3775311110423081  0.8587183586374261 21.9757188431044455
  1.3778538517838304  3.3798572034258330 25.2131272469517960
  1.3771551651685601  0.8587896974278841 24.7890686886671148
  1.3782300265318397  3.3797858874494442 22.3996697357640144
