I  Cu Ge F 
 1.0000000000000000
     4.2136597341752982   -0.0000000000000000    0.0000000000000000
    -2.1068298658946683    3.6491363706337907    0.0000000000000000
     0.0000000000000013    0.0000000000000022   41.2930535396370075
 I   Cu  Ge  F  
   2   2   2   2
Cartesian
  1.2025913274101876  0.7272942048695445 15.0000000000000000
  1.2025913071372099  3.1600517974558597 18.8558029306400030
  1.2025913274101878  0.7272942048695450 17.6212990317599996
  1.2025913071372096  3.1600517974558593 16.2370991544799992
  1.0984791509165359  0.8767559378277121 23.9190669175717296
  1.0984791553922322  3.3095135182502378 24.5121468028492515
  1.0984791509165359  0.8767559378277116 22.1381602119930179
  1.0984791553922322  3.3095135182502382 26.2930535396370075
